! T01-A finite-conductivity nominal export
# GHZ S RI R 50
1 -0.0150752316158 0.00203062855869 0.343026824666 -0.9257744517 0.343026310322 -0.925773707577 -0.0152597960915 0.00255827231081
1.001 -0.0152290671465 0.00200005555013 0.341880506125 -0.926181372438 0.341880123996 -0.926180673226 -0.0154134211713 0.0025290100346
1.002 -0.0153833538781 0.00196972442354 0.340733645078 -0.926586888624 0.340733393883 -0.926586234326 -0.0155674946084 0.00249999132678
1.003 -0.0155380915737 0.00193963678353 0.339586243035 -0.926990999138 0.3395861215 -0.926990389753 -0.0157220161596 0.00247121778753
1.004 -0.0156932799908 0.00190979423493 0.338438301513 -0.927393702862 0.338438308368 -0.927393138388 -0.0158769855765 0.00244269101728
1.005 -0.0158489188818 0.00188019838279 0.337289822027 -0.927794998679 0.337289956008 -0.927794479109 -0.0160324026053 0.00241441261659
1.006 -0.0160050079935 0.00185085083232 0.3361408061 -0.928194885474 0.33614106595 -0.928194410798 -0.016188266987 0.00238638418622
1.007 -0.0161615470674 0.00182175318893 0.334991255256 -0.928593362132 0.334991639724 -0.928592932338 -0.016344578457 0.00235860732708
1.008 -0.0163185358398 0.00179290705815 0.333841171025 -0.928990427541 0.333841678864 -0.928990042612 -0.0165013367454 0.0023310836402
1.009 -0.0164759740414 0.00176431404566 0.332690554939 -0.929386080587 0.332691184908 -0.929385740506 -0.0166585415771 0.00230381472673
1.01 -0.0166338613977 0.00173597575725 0.331539408532 -0.929780320162 0.331540159397 -0.929780024906 -0.0168161926715 0.0022768021879
1.011 -0.0167921976287 0.0017078937988 0.330387733345 -0.930173145156 0.330388603878 -0.930172894701 -0.0169742897425 0.00225004762502
1.012 -0.0169509824491 0.00168006977626 0.329235530921 -0.930564554461 0.329236519898 -0.930564348779 -0.017132832499 0.00222355263945
1.013 -0.0171102155683 0.00165250529565 0.328082802805 -0.930954546972 0.328083909009 -0.930954386031 -0.0172918206442 0.00219731883261
1.014 -0.0172698966902 0.00162520196301 0.326929550549 -0.931343121582 0.326930772768 -0.93134300535 -0.0174512538761 0.0021713478059
1.015 -0.0174300255134 0.0015981613844 0.325775775706 -0.931730277188 0.325777112734 -0.931730205629 -0.0176111318873 0.00214564116075
1.016 -0.0175906017311 0.00157138516589 0.324621479832 -0.932116012689 0.324622930471 -0.932115985762 -0.0177714543649 0.00212020049855
1.017 -0.0177516250312 0.00154487491353 0.32346666449 -0.932500326983 0.323468227543 -0.932500344647 -0.017932220991 0.00209502742065
1.018 -0.017913095096 0.00151863223332 0.322311331244 -0.932883218971 0.322313005523 -0.93288328118 -0.0180934314418 0.00207012352836
1.019 -0.0180750116026 0.0014926587312 0.32115548166 -0.933264687556 0.321157265983 -0.933264794262 -0.0182550853886 0.0020454904229
1.02 -0.0182373742228 0.00146695601306 0.319999117312 -0.933644731639 0.320001010501 -0.933644882793 -0.0184171824971 0.0020211297054
1.021 -0.0184001826229 0.00144152568467 0.318842239775 -0.934023350128 0.318844240657 -0.934023545675 -0.0185797224276 0.00199704297686
1.022 -0.0185634364638 0.00141636935169 0.317684850626 -0.934400541927 0.317686958037 -0.934400781811 -0.0187427048351 0.00197323183818
1.023 -0.0187271354011 0.00139148861966 0.31652695145 -0.934776305945 0.316529164228 -0.934776590108 -0.0189061293693 0.00194969789007
1.024 -0.0188912790849 0.00136688509396 0.31536854383 -0.935150641091 0.315370860822 -0.935150969471 -0.0190699956743 0.0019264427331
1.025 -0.0190558671601 0.00134256037981 0.314209629358 -0.935523546276 0.314212049413 -0.935523918809 -0.0192343033892 0.00190346796763
1.026 -0.0192208992661 0.00131851608223 0.313050209626 -0.935895020413 0.313052731602 -0.935895437031 -0.0193990521473 0.00188077519382
1.027 -0.019386375037 0.00129475380603 0.311890286231 -0.936265062415 0.31189290899 -0.936265523049 -0.0195642415769 0.00185836601162
1.028 -0.0195522941014 0.00127127515581 0.310729860773 -0.936633671198 0.310732583183 -0.936634175776 -0.0197298713006 0.0018362420207
1.029 -0.0197186560825 0.00124808173592 0.309568934857 -0.937000845679 0.30957175579 -0.937001394126 -0.0198959409359 0.00181440482049
1.03 -0.0198854605984 0.00122517515045 0.308407510089 -0.937366584776 0.308410428426 -0.937367177014 -0.0200624500947 0.00179285601014
1.031 -0.0200527072615 0.00120255700319 0.307245588081 -0.937730887409 0.307248602705 -0.93773152336 -0.0202293983837 0.00177159718849
1.032 -0.020220395679 0.00118022889765 0.306083170447 -0.938093752501 0.306086280249 -0.938094432081 -0.0203967854041 0.00175062995406
1.033 -0.0203885254527 0.00115819243702 0.304920258806 -0.938455178974 0.304923462682 -0.938455902099 -0.0205646107519 0.00172995590504
1.034 -0.0205570961789 0.00113644922415 0.303756854779 -0.938815165754 0.303760151631 -0.938815932335 -0.0207328740176 0.00170957663925
1.035 -0.0207261074487 0.00111500086153 0.302592959992 -0.939173711767 0.302596348726 -0.939174521715 -0.0209015747863 0.00168949375414
1.036 -0.0208955588478 0.00109384895127 0.301428576074 -0.939530815941 0.301432055602 -0.939531669163 -0.0210707126379 0.00166970884678
1.037 -0.0210654499562 0.00107299509511 0.300263704657 -0.939886477206 0.300267273898 -0.939887373608 -0.0212402871466 0.0016502235138
1.038 -0.0212357803491 0.00105244089435 0.299098347378 -0.940240694493 0.299102005255 -0.940241633977 -0.0214102978816 0.00163103935143
1.039 -0.0214065495958 0.00103218794989 0.297932505876 -0.940593466736 0.297936251319 -0.940594449203 -0.0215807444066 0.00161215795542
1.04 -0.0215777572605 0.00101223786215 0.296766181795 -0.940944792869 0.296770013738 -0.940945818217 -0.0217516262798 0.00159358092108
1.041 -0.0217494029019 0.000992592231109 0.295599376781 -0.941294671829 0.295603294164 -0.941295739953 -0.0219229430542 0.00157530984322
1.042 -0.0219214860736 0.000973252656248 0.294432092485 -0.941643102554 0.294436094253 -0.941644213348 -0.0220946942773 0.00155734631613
1.043 -0.0220940063234 0.000954220736547 0.29326433056 -0.941990083984 0.293268415666 -0.941991237339 -0.0222668794915 0.00153969193361
1.044 -0.022266963194 0.000935498070463 0.292096092666 -0.942335615061 0.292100260065 -0.942336810865 -0.0224394982335 0.00152234828889
1.045 -0.0224403562227 0.000917086255914 0.290927380462 -0.942679694728 0.290931629117 -0.942680932868 -0.0226125500348 0.00150531697466
1.046 -0.0226141849414 0.000898986890256 0.289758195613 -0.943022321929 0.289762524491 -0.94302360229 -0.0227860344216 0.00148859958301
1.047 -0.0227884488767 0.000881201570272 0.288588539788 -0.943363495613 0.288592947863 -0.943364818076 -0.0229599509146 0.00147219770544
1.048 -0.0229631475497 0.000863731892144 0.287418414659 -0.943703214728 0.287422900909 -0.943704579172 -0.0231342990292 0.00145611293286
1.049 -0.0231382804762 0.000846579451443 0.286247821901 -0.944041478224 0.286252385309 -0.944042884527 -0.0233090782756 0.00144034685551
1.05 -0.0233138471668 0.000829745843108 0.285076763194 -0.944378285053 0.28508140275 -0.944379733091 -0.0234842881583 0.001424901063
1.051 -0.0234898471263 0.000813232661426 0.283905240219 -0.944713634169 0.283909954918 -0.944715123816 -0.0236599281768 0.00140977714425
1.052 -0.0236662798547 0.000797041500013 0.282733254663 -0.945047524529 0.282738043505 -0.945049055655 -0.023835997825 0.00139497668752
1.053 -0.0238431448463 0.000781173951802 0.281560808216 -0.94537995509 0.281565670207 -0.945381527565 -0.0240124965917 0.00138050128034
1.054 -0.02402044159 0.000765631609016 0.280387902571 -0.945710924812 0.280392836721 -0.945712538502 -0.02418942396 0.00136635250953
1.055 -0.0241981695696 0.000750416063157 0.279214539425 -0.946040432655 0.279219544752 -0.946042087425 -0.024366779408 0.00135253196114
1.056 -0.0243763282634 0.000735528904984 0.278040720479 -0.946368477584 0.278045796003 -0.946370173298 -0.0245445624082 0.0013390412205
1.057 -0.0245549171442 0.000720971724495 0.276866447436 -0.946695058564 0.276871592185 -0.946696795081 -0.024722772428 0.00132588187212
1.058 -0.0247339356798 0.000706746110909 0.275691722004 -0.947020174561 0.27569693501 -0.947021951741 -0.0249014089293 0.00131305549974
1.059 -0.0249133833323 0.000692853652651 0.274516545894 -0.947343824545 0.274521826195 -0.947345642244 -0.0250804713686 0.00130056368627
1.06 -0.0250932595587 0.000679295937329 0.273340920821 -0.947666007486 0.273346267461 -0.94766786556 -0.0252599591972 0.00128840801379
1.061 -0.0252735638106 0.000666074551719 0.272164848503 -0.947986722357 0.27217026053 -0.947988620658 -0.025439871861 0.00127659006353
1.062 -0.0254542955342 0.000653191081744 0.270988330662 -0.948305968134 0.270993807129 -0.948307906513 -0.0256202088007 0.00126511141584
1.063 -0.0256354541703 0.000640647112461 0.269811369023 -0.948623743792 0.26981690899 -0.948625722099 -0.0258009694515 0.00125397365019
1.064 -0.0258170391546 0.000628444228037 0.268633965315 -0.948940048311 0.268639567847 -0.948942066392 -0.0259821532433 0.00124317834515
1.065 -0.0259990499172 0.000616584011736 0.267456121271 -0.949254880671 0.267461785436 -0.949256938372 -0.0261637596008 0.00123272707834
1.066 -0.0261814858831 0.000605068045897 0.266277838627 -0.949568239854 0.266283563501 -0.94957033702 -0.0263457879432 0.00122262142648
1.067 -0.0263643464719 0.000593897911918 0.265099119121 -0.949880124847 0.265104903785 -0.949882261317 -0.0265282376846 0.00121286296528
1.068 -0.0265476310977 0.00058307519024 0.263919964498 -0.950190534634 0.263925808036 -0.950192710249 -0.0267111082335 0.0012034532695
1.069 -0.0267313391695 0.000572601460324 0.262740376504 -0.950499468205 0.262746278007 -0.950501682803 -0.0268943989933 0.00119439391291
1.07 -0.0269154700909 0.000562478300638 0.261560356888 -0.950806924551 0.261566315454 -0.950809177969 -0.0270781093621 0.00118568646826
1.071 -0.0271000232601 0.000552707288635 0.260379907406 -0.951112902665 0.260385922134 -0.951115194736 -0.0272622387326 0.00117733250724
1.072 -0.0272849980701 0.000543290000738 0.259199029814 -0.95141740154 0.259205099811 -0.951419732098 -0.0274467864922 0.00116933360053
1.073 -0.0274703939087 0.000534228012322 0.258017725872 -0.951720420175 0.25802385025 -0.95172278905 -0.0276317520231 0.00116169131772
1.074 -0.0276562101581 0.000525522897695 0.256835997345 -0.952021957568 0.256842175222 -0.95202436459 -0.027817134702 0.00115440722732
1.075 -0.0278424461953 0.00051717623008 0.255653846002 -0.952322012721 0.255660076498 -0.952324457718 -0.0280029339005 0.00114748289673
1.076 -0.0280291013921 0.000509189581598 0.254471273613 -0.952620584636 0.254477555857 -0.952623067433 -0.0281891489849 0.00114091989225
1.077 -0.028216175115 0.000501564523251 0.253288281953 -0.95291767232 0.253294615077 -0.952920192742 -0.028375779316 0.00113471977901
1.078 -0.028403666725 0.000494302624903 0.252104872801 -0.953213274779 0.252111255942 -0.953215832648 -0.0285628242496 0.00112888412101
1.079 -0.0285915755781 0.000487405455261 0.250921047939 -0.953507391023 0.25092748024 -0.953509986161 -0.0287502831361 0.00112341448106
1.08 -0.0287799010247 0.000480874581861 0.249736809151 -0.953800020064 0.249743289761 -0.953802652291 -0.0289381553204 0.00111831242078
1.081 -0.0289686424103 0.000474711571047 0.248552158229 -0.954091160916 0.248558686299 -0.95409383005 -0.0291264401426 0.00111357950059
1.082 -0.0291577990746 0.000468917987955 0.247367096962 -0.954380812595 0.247373671653 -0.954383518452 -0.029315136937 0.00110921727967
1.083 -0.0293473703525 0.000463495396494 0.246181627149 -0.95466897412 0.246188247622 -0.954671716515 -0.0295042450331 0.00110522731597
1.084 -0.0295373555734 0.000458445359332 0.244995750588 -0.954955644511 0.245002416012 -0.954958423257 -0.0296937637548 0.00110161116615
1.085 -0.0297277540615 0.000453769437872 0.243809469082 -0.955240822791 0.243816178631 -0.9552436377 -0.029883692421 0.00109837038563
1.086 -0.0299185651356 0.000449469192242 0.242622784438 -0.955524507985 0.24262953729 -0.955527358868 -0.030074030345 0.00109550652849
1.087 -0.0301097881093 0.00044554618127 0.241435698466 -0.955806699121 0.241442493805 -0.955809585786 -0.0302647768352 0.00109302114753
1.088 -0.0303014222911 0.000442001962474 0.24024821298 -0.956087395227 0.240255049994 -0.956090317482 -0.0304559311945 0.0010909157942
1.089 -0.0304934669841 0.000438838092038 0.239060329796 -0.956366595336 0.23906720768 -0.956369552988 -0.0306474927208 0.00108919201861
1.09 -0.030685921486 0.000436056124798 0.237872050735 -0.956644298482 0.237878968687 -0.956647291335 -0.0308394607065 0.00108785136948
1.091 -0.0308787850896 0.000433657614225 0.236683377622 -0.956920503701 0.236690334846 -0.956923531558 -0.031031834439 0.00108689539417
1.092 -0.0310720570822 0.000431644112405 0.235494312284 -0.957195210032 0.235501307988 -0.957198272696 -0.0312246132002 0.00108632563864
1.093 -0.0312657367458 0.000430017170025 0.234304856551 -0.957468416516 0.23431188995 -0.957471513787 -0.031417796267 0.0010861436474
1.094 -0.0314598233575 0.00042877833635 0.233115012259 -0.957740122196 0.233122082572 -0.957743253873 -0.031611382911 0.00108635096356
1.095 -0.0316543161888 0.000427929159215 0.231924781245 -0.958010326119 0.231931887695 -0.958013492 -0.0318053723985 0.00108694912876
1.096 -0.0318492145061 0.000427471184997 0.230734165351 -0.958279027331 0.230741307167 -0.958282227214 -0.0319997639908 0.00108793968315
1.097 -0.0320445175707 0.000427405958607 0.229543166421 -0.958546224884 0.229550342838 -0.958549458563 -0.0321945569436 0.00108932416543
1.098 -0.0322402246385 0.000427735023467 0.228351786306 -0.958811917831 0.228358996561 -0.958815185101 -0.0323897505079 0.00109110411277
1.099 -0.0324363349603 0.000428459921493 0.227160026855 -0.959076105226 0.227167270193 -0.959079405879 -0.0325853439291 0.00109328106081
1.1 -0.0326328477817 0.000429582193082 0.225967889925 -0.959338786127 0.225975165594 -0.959342119956 -0.0327813364476 0.00109585654367
1.101 -0.032829762343 0.000431103377091 0.224775377374 -0.959599959595 0.224782684628 -0.95960332639 -0.0329777272984 0.00109883209391
1.102 -0.0330270778793 0.000433025010821 0.223582491065 -0.959859624692 0.223589829162 -0.959863024241 -0.0331745157116 0.0011022092425
1.103 -0.0332247936206 0.000435348630001 0.222389232863 -0.960117780482 0.222396601067 -0.960121212575 -0.0333717009119 0.00110598951884
1.104 -0.0334229087916 0.000438075768768 0.221195604638 -0.960374426033 0.221203002217 -0.960377890456 -0.0335692821189 0.0011101744507
1.105 -0.0336214226119 0.000441207959653 0.220001608263 -0.960629560416 0.220009034489 -0.960633056955 -0.033767258547 0.00111476556424
1.106 -0.0338203342959 0.000444746733564 0.218807245613 -0.960883182701 0.218814699765 -0.960886711141 -0.0339656294055 0.00111976438399
1.107 -0.0340196430528 0.000448693619766 0.217612518568 -0.961135291964 0.217619999929 -0.961138852089 -0.0341643938984 0.00112517243278
1.108 -0.0342193480866 0.000453050145868 0.216417429011 -0.961385887283 0.216424936868 -0.961389478874 -0.0343635512246 0.0011309912318
1.109 -0.0344194485962 0.000457817837801 0.215221978828 -0.961634967737 0.215229512475 -0.961638590577 -0.0345631005779 0.00113722230054
1.11 -0.0346199437752 0.000462998219808 0.21402616991 -0.961882532409 0.214033728643 -0.961886186277 -0.034763041147 0.00114386715677
1.111 -0.0348208328122 0.00046859281442 0.21283000415 -0.962128580383 0.212837587272 -0.96213226506 -0.0349633721152 0.00115092731655
1.112 -0.0350221148907 0.000474603142444 0.211633483444 -0.962373110747 0.211641090262 -0.96237682601 -0.0351640926609 0.00115840429418
1.113 -0.0352237891887 0.000481030722944 0.210436609693 -0.962616122591 0.210444239518 -0.962619868218 -0.0353652019573 0.0011662996022
1.114 -0.0354258548794 0.000487877073227 0.2092393848 -0.962857615008 0.209247036949 -0.962861390775 -0.0355666991724 0.00117461475139
1.115 -0.0356283111308 0.00049514370882 0.208041810673 -0.963097587092 0.208049484467 -0.963101392775 -0.0357685834693 0.00118335125073
1.116 -0.0358311571057 0.000502832143462 0.206843889221 -0.963336037942 0.206851583986 -0.963339873316 -0.0359708540056 0.00119251060737
1.117 -0.0360343919618 0.00051094388908 0.205645622359 -0.963572966658 0.205653337426 -0.963576831495 -0.0361735099341 0.00120209432666
1.118 -0.0362380148516 0.000519480455775 0.204447012003 -0.963808372343 0.204454746708 -0.963812266417 -0.0363765504024 0.0012121039121
1.119 -0.0364420249226 0.000528443351806 0.203248060075 -0.964042254103 0.203255813758 -0.964046177184 -0.036579974553 0.00122254086532
1.12 -0.0366464213171 0.000537834083573 0.202048768498 -0.964274611046 0.202056540504 -0.964278562906 -0.0367837815232 0.00123340668609
1.121 -0.0368512031724 0.000547654155601 0.2008491392 -0.964505442283 0.200856928879 -0.964509422692 -0.0369879704455 0.00124470287226
1.122 -0.0370563696207 0.000557905070522 0.199649174112 -0.964734746927 0.199656980818 -0.964738755654 -0.0371925404469 0.00125643091979
1.123 -0.0372619197888 0.000568588329057 0.198448875168 -0.964962524096 0.19845669826 -0.964966560909 -0.0373974906497 0.00126859232272
1.124 -0.0374678527989 0.000579705430007 0.197248244306 -0.965188772907 0.197256083147 -0.965192837574 -0.0376028201708 0.00128118857314
1.125 -0.0376741677678 0.000591257870225 0.196047283465 -0.965413492484 0.196055137425 -0.965417584771 -0.0378085281224 0.00129422116117
1.126 -0.0378808638072 0.000603247144611 0.194845994592 -0.96563668195 0.194853863043 -0.965640801623 -0.0380146136112 0.00130769157498
1.127 -0.0380879400239 0.000615674746088 0.193644379634 -0.965858340433 0.193652261954 -0.965862487258 -0.0382210757392 0.00132160130071
1.128 -0.0382953955195 0.000628542165589 0.192442440541 -0.966078467062 0.192450336112 -0.966082640803 -0.0384279136033 0.00133595182253
1.129 -0.0385032293906 0.000641850892038 0.191240179268 -0.966297060971 0.191248087477 -0.966301261391 -0.0386351262951 0.00135074462258
1.13 -0.0387114407289 0.000655602412339 0.190037597773 -0.966514121294 0.190045518012 -0.966518348157 -0.0388427129015 0.00136598118093
1.131 -0.0389200286206 0.000669798211352 0.188834698018 -0.966729647171 0.188842629682 -0.966733900238 -0.039050672504 0.00138166297562
1.132 -0.0391289921474 0.000684439771885 0.187631481966 -0.966943637743 0.187639424456 -0.966947916775 -0.0392590041795 0.00139779148263
1.133 -0.0393383303856 0.000699528574671 0.186427951586 -0.967156092152 0.186435904307 -0.967160396911 -0.0394677069996 0.00141436817581
1.134 -0.0395480424066 0.000715066098356 0.185224108848 -0.967367009547 0.18523207121 -0.967371339793 -0.0396767800308 0.00143139452694
1.135 -0.0397581272768 0.000731053819481 0.184019955728 -0.967576389076 0.184027927145 -0.967580744568 -0.0398862223349 0.00144887200566
1.136 -0.0399685840575 0.000747493212466 0.182815494202 -0.967784229892 0.182823474094 -0.96778861039 -0.0400960329685 0.00146680207948
1.137 -0.040179411805 0.000764385749594 0.181610726253 -0.967990531151 0.181618714043 -0.967994936412 -0.0403062109831 0.00148518621376
1.138 -0.0403906095707 0.000781732900998 0.180405653865 -0.96819529201 0.18041364898 -0.968199721792 -0.0405167554255 0.00150402587169
1.139 -0.0406021764008 0.000799536134639 0.179200279026 -0.96839851163 0.179208280898 -0.968402965691 -0.0407276653373 0.00152332251427
1.14 -0.0408141113368 0.000817796916294 0.177994603726 -0.968600189176 0.178002611792 -0.968604667272 -0.0409389397553 0.00154307760029
1.141 -0.041026413415 0.00083651670954 0.176788629961 -0.968800323815 0.176796643662 -0.968804825701 -0.041150577711 0.00156329258635
1.142 -0.0412390816667 0.000855696975737 0.175582359727 -0.968998914715 0.17559037851 -0.969003440148 -0.0413625782313 0.00158396892679
1.143 -0.0414521151184 0.000875339174012 0.174375795027 -0.969195961051 0.174383818341 -0.969200509784 -0.041574940338 0.00160510807372
1.144 -0.0416655127915 0.000895444761245 0.173168937864 -0.969391461997 0.173176965164 -0.969396033786 -0.0417876630479 0.00162671147698
1.145 -0.0418792737024 0.000916015192051 0.171961790247 -0.969585416732 0.171969820991 -0.96959001133 -0.042000745373 0.00164878058411
1.146 -0.0420933968626 0.000937051918763 0.170754354185 -0.969777824437 0.170762387838 -0.969782441599 -0.0422141863201 0.0016713168404
1.147 -0.0423078812789 0.000958556391422 0.169546631693 -0.969968684298 0.169554667722 -0.969973323776 -0.0424279848913 0.00169432168877
1.148 -0.0425227259527 0.000980530057754 0.168338624789 -0.970157995501 0.168346662666 -0.970162657048 -0.0426421400838 0.00171779656987
1.149 -0.0427379298808 0.00100297436316 0.167130335494 -0.970345757238 0.167138374695 -0.970350440605 -0.0428566508897 0.00174174292196
1.15 -0.0429534920549 0.0010258907507 0.165921765831 -0.970531968702 0.165929805837 -0.970536673642 -0.0430715162964 0.00176616218097
1.151 -0.043169411462 0.00104928066106 0.164712917828 -0.97071662909 0.164720958125 -0.970721355353 -0.0432867352861 0.00179105578044
1.152 -0.0433856870839 0.00107314553258 0.163503793515 -0.9708997376 0.163511833592 -0.970904484938 -0.0435023068365 0.00181642515154
1.153 -0.0436023178977 0.00109748680119 0.162294394926 -0.971081293437 0.162302434276 -0.9710860616 -0.04371822992 0.00184227172302
1.154 -0.0438193028756 0.00112230590042 0.161084724097 -0.971261295805 0.16109276222 -0.971266084543 -0.0439345035045 0.0018685969212
1.155 -0.0440366409847 0.00114760426137 0.159874783071 -0.971439743914 0.159882819468 -0.971444552977 -0.0441511265528 0.00189540216999
1.156 -0.0442543311876 0.00117338331273 0.158664573888 -0.971616636975 0.158672608067 -0.971621466113 -0.0443680980227 0.00192268889082
1.157 -0.0444723724415 0.0011996444807 0.157454098598 -0.971791974204 0.157462130068 -0.971796823166 -0.0445854168676 0.00195045850267
1.158 -0.0446907636993 0.00122638918904 0.156243359248 -0.971965754819 0.156251387526 -0.971970623353 -0.0448030820356 0.00197871242204
1.159 -0.0449095039086 0.00125361885903 0.155032357893 -0.97213797804 0.155040382498 -0.972142865896 -0.0450210924701 0.00200745206292
1.16 -0.0451285920123 0.00128133490944 0.153821096589 -0.972308643093 0.153829117044 -0.972313550019 -0.0452394471097 0.00203667883681
1.161 -0.0453480269485 0.00130953875652 0.152609577395 -0.972477749205 0.152617593228 -0.972482674949 -0.0454581448883 0.00206639415264
1.162 -0.0455678076504 0.00133823181402 0.151397802374 -0.972645295607 0.151405813118 -0.972650239916 -0.0456771847346 0.00209659941684
1.163 -0.0457879330464 0.0013674154931 0.150185773592 -0.972811281533 0.150193778783 -0.972816244155 -0.0458965655729 0.00212729603326
1.164 -0.04600840206 0.00139709120241 0.148973493119 -0.972975706219 0.148981492297 -0.972980686902 -0.0461162863223 0.00215848540318
1.165 -0.04622921361 0.001427260348 0.147760963026 -0.973138568907 0.147768955736 -0.973143567398 -0.0463363458975 0.00219016892529
1.166 -0.0464503666103 0.00145792433333 0.146548185389 -0.973299868839 0.146556171179 -0.973304884885 -0.0465567432081 0.00222234799568
1.167 -0.0466718599701 0.00148908455926 0.145335162286 -0.973459605263 0.145343140711 -0.973464638611 -0.0467774771591 0.00225502400781
1.168 -0.0468936925936 0.00152074242404 0.1441218958 -0.973617777428 0.144129866415 -0.973622827824 -0.0469985466505 0.00228819835251
1.169 -0.0471158633803 0.00155289932327 0.142908388015 -0.973774384588 0.142916350382 -0.973779451779 -0.0472199505778 0.00232187241798
1.17 -0.0473383712251 0.0015855566499 0.14169464102 -0.973929425999 0.141702594704 -0.973934509731 -0.0474416878316 0.00235604758974
1.171 -0.047561215018 0.00161871579423 0.140480656906 -0.974082900921 0.140488601477 -0.974088000941 -0.0476637572977 0.00239072525062
1.172 -0.047784393644 0.00165237814387 0.139266437766 -0.974234808617 0.139274372797 -0.974239924671 -0.0478861578571 0.00242590678077
1.173 -0.0480079059838 0.00168654508373 0.1380519857 -0.974385148353 0.138059910768 -0.974390280187 -0.0481088883864 0.00246159355763
1.174 -0.048231750913 0.00172121799603 0.136837302806 -0.974533919399 0.136845217494 -0.974539066759 -0.0483319477571 0.00249778695592
1.175 -0.0484559273026 0.00175639826024 0.13562239119 -0.974681121028 0.135630295083 -0.97468628366 -0.0485553348361 0.00253448834762
1.176 -0.0486804340188 0.00179208725312 0.134407252959 -0.974826752517 0.134415145645 -0.974831930166 -0.0487790484857 0.00257169910194
1.177 -0.0489052699231 0.00182828634864 0.133191890221 -0.974970813144 0.133199771296 -0.974976005557 -0.0490030875632 0.00260942058534
1.178 -0.0491304338723 0.00186499691804 0.13197630509 -0.975113302193 0.131984174151 -0.975118509116 -0.0492274509215 0.0026476541615
1.179 -0.0493559247185 0.00190222032975 0.130760499683 -0.975254218951 0.13076835633 -0.975259440129 -0.0494521374086 0.00268640119129
1.18 -0.0495817413091 0.0019399579494 0.129544476118 -0.975393562707 0.129552319959 -0.975398797886 -0.0496771458681 0.00272566303278
1.181 -0.0498078824867 0.00197821113983 0.128328236518 -0.975531332754 0.128336067161 -0.97553658168 -0.0499024751385 0.0027654410412
1.182 -0.0500343470893 0.00201698126103 0.127111783009 -0.975667528389 0.127119600068 -0.975672790808 -0.050128124054 0.00280573656895
1.183 -0.0502611339503 0.00205626967015 0.125895117719 -0.975802148911 0.125902920812 -0.975807424569 -0.0503540914439 0.00284655096557
1.184 -0.0504882418983 0.00209607772151 0.12467824278 -0.975935193625 0.124686031527 -0.975940482267 -0.050580376133 0.00288788557773
1.185 -0.0507156697573 0.00213640676652 0.123461160325 -0.976066661837 0.123468934352 -0.97607196321 -0.0508069769414 0.00292974174922
1.186 -0.0509434163466 0.00217725815372 0.122243872494 -0.976196552857 0.12225163143 -0.976201866706 -0.0510338926846 0.00297212082091
1.187 -0.0511714804808 0.00221863322876 0.121026381426 -0.976324865999 0.121034124904 -0.976330192071 -0.0512611221735 0.00301502413079
1.188 -0.0513998609701 0.00226053333437 0.119808689266 -0.976451600581 0.119816416923 -0.976456938622 -0.0514886642141 0.0030584530139
1.189 -0.0516285566199 0.00230295981033 0.11859079816 -0.976576755922 0.118598509637 -0.976582105679 -0.0517165176082 0.00310240880233
1.19 -0.0518575662309 0.00234591399351 0.117372710258 -0.976700331347 0.117380405199 -0.976705692567 -0.0519446811527 0.00314689282525
1.191 -0.0520868885993 0.0023893972178 0.116154427713 -0.976822326185 0.116162105766 -0.976827698613 -0.0521731536401 0.00319190640881
1.192 -0.0523165225167 0.00243341081411 0.11493595268 -0.976942739766 0.114943613499 -0.976948123149 -0.0524019338581 0.00323745087622
1.193 -0.0525464667701 0.00247795611039 0.113717287319 -0.977061571424 0.113724930558 -0.97706696551 -0.0526310205901 0.00328352754766
1.194 -0.0527767201419 0.00252303443157 0.112498433791 -0.977178820499 0.112506059111 -0.977184225035 -0.0528604126148 0.0033301377403
1.195 -0.0530072814098 0.00256864709957 0.111279394261 -0.977294486332 0.111287001326 -0.977299901065 -0.0530901087061 0.0033772827683
1.196 -0.0532381493473 0.00261479543328 0.110060170897 -0.977408568269 0.110067759374 -0.977413992946 -0.0533201076338 0.00342496394275
1.197 -0.0534693227228 0.00266148074854 0.10884076587 -0.977521065658 0.10884833543 -0.977526500028 -0.0535504081628 0.00347318257173
1.198 -0.0537008003006 0.00270870435815 0.107621181353 -0.977631977852 0.107628731671 -0.977637421663 -0.0537810090536 0.00352193996019
1.199 -0.0539325808402 0.00275646757181 0.106401419524 -0.977741304208 0.106408950277 -0.977746757207 -0.0540119090623 0.00357123741004
1.2 -0.0541646630968 0.00280477169616 0.105181482561 -0.977849044086 0.105188993433 -0.977854506021 -0.0542431069401 0.00362107622008
1.201 -0.0543970458207 0.00285361803473 0.103961372647 -0.977955196848 0.103968863324 -0.977960667469 -0.0544746014342 0.00367145768599
1.202 -0.054629727758 0.00290300788793 0.102741091969 -0.978059761862 0.102748562139 -0.978065240918 -0.0547063912869 0.00372238310034
1.203 -0.0548627076503 0.00295294255305 0.101520642713 -0.978162738498 0.101528092071 -0.978168225738 -0.0549384752362 0.00377385375253
1.204 -0.0550959842345 0.00300342332423 0.100300027072 -0.978264126132 0.100307455314 -0.978269621306 -0.0551708520155 0.00382587092884
1.205 -0.0553295562431 0.00305445149247 0.0990792472401 -0.978363924141 0.0990866540668 -0.978369426998 -0.0554035203538 0.00387843591237
1.206 -0.0555634224041 0.00310602834558 0.0978583054142 -0.978462131906 0.0978656905299 -0.978467642197 -0.0556364789758 0.00393154998302
1.207 -0.055797581441 0.0031581551682 0.0966372037944 -0.978558748814 0.096644566907 -0.978564266289 -0.0558697266014 0.00398521441753
1.208 -0.056032032073 0.00321083324177 0.0954159445837 -0.978653774254 0.0954232854046 -0.978659298664 -0.0561032619463 0.00403943048941
1.209 -0.0562667730147 0.00326406384451 0.094194529988 -0.978747207618 0.0942018482322 -0.978752738715 -0.0563370837217 0.00409419946893
1.21 -0.0565018029762 0.00331784825142 0.0929729622159 -0.978839048304 0.0929802576021 -0.978844585838 -0.0565711906343 0.00414952262316
1.211 -0.0567371206633 0.00337218773427 0.0917512434791 -0.978929295711 0.0917585157293 -0.978934839435 -0.0568055813866 0.0042054012159
1.212 -0.0569727247773 0.00342708356156 0.0905293759921 -0.979017949243 0.0905366248319 -0.979023498909 -0.0570402546763 0.00426183650768
1.213 -0.057208614015 0.00348253699853 0.089307361972 -0.979105008309 0.0893145871308 -0.97911056367 -0.0572752091971 0.00431882975576
1.214 -0.057444787069 0.00353854930716 0.0880852036391 -0.979190472321 0.0880924048495 -0.97919603313 -0.0575104436382 0.00437638221412
1.215 -0.0576812426272 0.0035951217461 0.0868629032162 -0.979274340693 0.0868700802145 -0.979279906703 -0.0577459566842 0.00443449513342
1.216 -0.0579179793735 0.00365225557072 0.0856404629294 -0.979356612845 0.0856476154552 -0.979362183811 -0.0579817470155 0.004493169761
1.217 -0.058154995987 0.00370995203306 0.084417885007 -0.9794372882 0.0844250128036 -0.979442863876 -0.0582178133082 0.00455240734089
1.218 -0.0583922911427 0.00376821238182 0.0831951716806 -0.979516366185 0.0832022744946 -0.979521946326 -0.058454154234 0.00461220911374
1.219 -0.0586298635112 0.00382703786237 0.0819723251844 -0.97959384623 0.081979402766 -0.979599430591 -0.0586907684601 0.00467257631688
1.22 -0.0588677117586 0.0038864297167 0.0807493477554 -0.979669727771 0.080756399858 -0.979675316108 -0.0589276546496 0.00473351018424
1.221 -0.0591058345467 0.00394638918343 0.0795262416335 -0.979744010246 0.0795332680141 -0.979749602315 -0.0591648114611 0.00479501194638
1.222 -0.0593442305332 0.00400691749779 0.0783030090612 -0.979816693096 0.0783100094801 -0.979822288655 -0.0594022375489 0.00485708283044
1.223 -0.0595828983712 0.00406801589162 0.0770796522838 -0.979887775769 0.0770866265049 -0.979893374574 -0.0596399315631 0.00491972406018
1.224 -0.0598218367095 0.00412968559334 0.0758561735495 -0.979957257714 0.0758631213398 -0.979962859523 -0.0598778921494 0.00498293685592
1.225 -0.0600610441927 0.00419192782793 0.0746325751092 -0.980025138385 0.0746394962393 -0.980030742956 -0.0601161179492 0.00504672243452
1.226 -0.0603005194611 0.00425474381693 0.0734088592165 -0.980091417241 0.0734157534601 -0.980097024333 -0.0603546075997 0.00511108200943
1.227 -0.0605402611506 0.00431813477845 0.0721850281277 -0.980156093742 0.072191895262 -0.980161703115 -0.0605933597338 0.00517601679061
1.228 -0.0607802678929 0.00438210192711 0.0709610841019 -0.980219167355 0.0709679239075 -0.980224778769 -0.0608323729801 0.00524152798453
1.229 -0.0610205383154 0.00444664647404 0.0697370294008 -0.980280637549 0.0697438416615 -0.980286250764 -0.061071645963 0.0053076167942
1.23 -0.0612610710412 0.0045117696269 0.0685128662891 -0.980340503799 0.068519650792 -0.980346118576 -0.0613111773026 0.0053742844191
1.231 -0.0615018646893 0.00457747258982 0.0672885970338 -0.980398765581 0.0672953535693 -0.980404381682 -0.0615509656149 0.00544153205521
1.232 -0.0617429178743 0.00464375656343 0.066064223905 -0.980455422377 0.0660709522666 -0.980461039564 -0.0617910095114 0.00550936089498
1.233 -0.0619842292066 0.00471062274482 0.064839749175 -0.980510473673 0.0648464491599 -0.980516091709 -0.0620313075997 0.00557777212729
1.234 -0.0622257972924 0.00477807232751 0.0636151751193 -0.980563918959 0.0636218465275 -0.980569537607 -0.062271858483 0.00564676693749
1.235 -0.0624676207337 0.00484610650148 0.0623905040158 -0.980615757728 0.0623971466506 -0.980621376753 -0.0625126607604 0.00571634650736
1.236 -0.0627096981283 0.00491472645316 0.0611657381449 -0.980665989477 0.061172351813 -0.980671608643 -0.0627537130268 0.00578651201509
1.237 -0.0629520280697 0.00498393336534 0.05994087979 -0.980714613709 0.0599474643011 -0.980720232782 -0.0629950138729 0.00585726463527
1.238 -0.0631946091474 0.00505372841726 0.0587159312368 -0.980761629929 0.0587224864039 -0.980767248674 -0.0632365618852 0.00592860553889
1.239 -0.0634374399465 0.00512411278452 0.0574908947739 -0.980807037647 0.0574974204132 -0.980812655832 -0.063478355646 0.00600053589332
1.24 -0.0636805190482 0.00519508763911 0.0562657726924 -0.980850836376 0.0562722686231 -0.980856453768 -0.0637203937338 0.0060730568623
1.241 -0.0639238450292 0.00526665414937 0.055040567286 -0.980893025635 0.0550470333306 -0.980898642002 -0.0639626747225 0.00614616960591
1.242 -0.0641674164625 0.00533881348 0.053815280851 -0.980933604946 0.053821716835 -0.980939220056 -0.0642051971821 0.00621987528057
1.243 -0.0644112319165 0.00541156679203 0.0525899156863 -0.980972573835 0.0525963214385 -0.980978187458 -0.0644479596785 0.00629417503906
1.244 -0.0646552899558 0.00548491524282 0.0513644740935 -0.981009931832 0.0513708494455 -0.981015543737 -0.0646909607735 0.00636907003043
1.245 -0.0648995891408 0.00555885998604 0.0501389583766 -0.981045678471 0.0501453031634 -0.98105128843 -0.0649341990247 0.00644456140007
1.246 -0.0651441280277 0.00563340217165 0.0489133708422 -0.981079813291 0.0489196849017 -0.981085421076 -0.0651776729857 0.00652065028963
1.247 -0.0653889051688 0.00570854294591 0.0476877137996 -0.981112335834 0.0476939969727 -0.981117941217 -0.065421381206 0.00659733783707
1.248 -0.065633919112 0.00578428345134 0.0464619895604 -0.981143245648 0.0464682416912 -0.981148848401 -0.0656653222311 0.00667462517658
1.249 -0.0658791684014 0.00586062482673 0.045236200439 -0.981172542283 0.0452424213746 -0.98117814218 -0.0659094946023 0.00675251343864
1.25 -0.066124651577 0.0059375682071 0.0440103487521 -0.981200225294 0.0440165383425 -0.981205822111 -0.066153896857 0.00683100374993
1.251 -0.0663703671746 0.00601511472374 0.0427844368192 -0.981226294241 0.0427905949175 -0.981231887752 -0.0663985275284 0.00691009723339
1.252 -0.0666163137262 0.00609326550413 0.0415584669619 -0.981250748687 0.0415645934241 -0.981256338668 -0.0666433851458 0.00698979500816
1.253 -0.0668624897594 0.00617202167198 0.0403324415046 -0.9812735882 0.0403385361899 -0.981279174428 -0.0668884682346 0.00707009818959
1.254 -0.0671088937981 0.00625138434719 0.0391063627742 -0.981294812352 0.0391124255444 -0.981300394605 -0.0671337753159 0.0071510078892
1.255 -0.0673555243621 0.00633135464583 0.0378802331 -0.981314420719 0.0378862638201 -0.981319998775 -0.0673793049071 0.00723252521472
1.256 -0.0676023799672 0.00641193368018 0.0366540548136 -0.981332412881 0.0366600533515 -0.98133798652 -0.0676250555213 0.00731465127002
1.257 -0.067849459125 0.00649312255865 0.0354278302494 -0.981348788423 0.0354337964758 -0.981354357426 -0.067871025668 0.00739738715512
1.258 -0.0680967603434 0.0065749223858 0.0342015617439 -0.981363546935 0.0342074955326 -0.981369111081 -0.0681172138524 0.00748073396621
1.259 -0.0683442821263 0.00665733426234 0.0329752516364 -0.981376688008 0.0329811528638 -0.98138224708 -0.0683636185759 0.00756469279559
1.26 -0.0685920229733 0.0067403592851 0.0317489022683 -0.981388211242 0.031754770814 -0.981393765021 -0.068610238336 0.00764926473166
1.261 -0.0688399813806 0.00682399854701 0.0305225159836 -0.981398116237 0.0305283517298 -0.981403664507 -0.0688570716262 0.00773445085896
1.262 -0.0690881558399 0.00690825313711 0.0292960951287 -0.981406402599 0.0293018979606 -0.981411945145 -0.069104116936 0.00782025225809
1.263 -0.0693365448394 0.00699312414052 0.0280696420523 -0.981413069939 0.0280754118578 -0.981418606546 -0.0693513727512 0.00790667000574
1.264 -0.0695851468631 0.00707861263844 0.0268431591057 -0.981418117872 0.0268488957756 -0.981423648326 -0.0695988375535 0.00799370517468
1.265 -0.0698339603912 0.00716471970813 0.0256166486422 -0.981421546017 0.0256223520702 -0.981427070105 -0.0698465098209 0.00808135883372
1.266 -0.0700829839001 0.0072514464229 0.0243901130179 -0.981423353997 0.0243957831003 -0.981428871506 -0.0700943880272 0.00816963204771
1.267 -0.070332215862 0.00733879385209 0.0231635545911 -0.98142354144 0.023169191227 -0.981429052159 -0.0703424706426 0.00825852587755
1.268 -0.0705816547455 0.00742676306107 0.0219369757222 -0.981422107977 0.0219425788136 -0.981427611697 -0.0705907561335 0.00834804138014
1.269 -0.0708312990153 0.00751535511124 0.0207103787744 -0.981419053247 0.0207159482258 -0.981424549757 -0.0708392429622 0.00843817960841
1.27 -0.0710811471322 0.00760457105998 0.0194837661128 -0.981414376888 0.0194893018317 -0.98141986598 -0.0710879295873 0.00852894161125
1.271 -0.071331197553 0.00769441196067 0.018257140105 -0.981408078547 0.0182626420015 -0.981413560014 -0.0713368144637 0.00862032843357
1.272 -0.071581448731 0.00778487886266 0.017030503121 -0.981400157874 0.0170359711079 -0.981405631508 -0.0715858960421 0.00871234111623
1.273 -0.0718318991153 0.00787597281127 0.0158038575329 -0.981390614522 0.0158092915257 -0.981396080118 -0.0718351727698 0.00880498069606
1.274 -0.0720825471515 0.00796769484778 0.0145772057153 -0.98137944815 0.0145826056321 -0.981384905503 -0.07208464309 0.00889824820582
1.275 -0.0723333912811 0.00806004600941 0.0133505500449 -0.981366658421 0.0133559158066 -0.981372107327 -0.0723343054425 0.00899214467423
1.276 -0.0725844299421 0.00815302732929 0.0121238929007 -0.981352245002 0.0121292244307 -0.981357685258 -0.0725841582628 0.00908667112591
1.277 -0.0728356615685 0.00824663983649 0.0108972366641 -0.981336207565 0.0109025338885 -0.98134163897 -0.0728341999831 0.00918182858142
1.278 -0.0730870845906 0.00834088455599 0.00967058371845 -0.981318545787 0.00967584656595 -0.981323968139 -0.0730844290316 0.00927761805719
1.279 -0.073338697435 0.00843576250864 0.0084439364496 -0.981299259349 0.00844916485154 -0.981304672448 -0.0733348438328 0.00937404056555
1.28 -0.0735904985245 0.00853127471119 0.00721729724552 -0.981278347935 0.0072224911358 -0.981283751583 -0.0735854428075 0.00947109711473
1.281 -0.073842486278 0.00862742217626 0.00599066849639 -0.981255811235 0.00599582781149 -0.981261205234 -0.0738362243728 0.00956878870878
1.282 -0.0740946591109 0.00872420591231 0.0047640525946 -0.981231648944 0.00476917727355 -0.981237033096 -0.074087186942 0.00966711634765
1.283 -0.0743470154349 0.00882162692368 0.00353745193473 -0.981205860761 0.00354254191912 -0.981211234871 -0.0743383289249 0.00976608102709
1.284 -0.0745995536577 0.00891968621053 0.00231086891354 -0.981178446389 0.00231592414746 -0.981183810261 -0.0745896487273 0.00986568373871
1.285 -0.0748522721836 0.00901838476882 0.00108430592995 -0.981149405535 0.00108932636004 -0.981154758976 -0.0748411447515 0.00996592546993
1.286 -0.0751051694132 0.00911772359036 -0.00014223461496 -0.981118737913 -0.000137249039582 -0.98112408073 -0.0750928153963 0.010066807204
1.287 -0.0753582437431 0.00921770366274 -0.00136875031797 -0.981086443239 -0.00136379964568 -0.98109177524 -0.0753446590565 0.0101683299198
1.288 -0.0756114935666 0.00931832596934 -0.00259523877371 -0.981052521235 -0.00259032305043 -0.981057842229 -0.0755966741236 0.0102704945924
1.289 -0.0758649172733 0.00941959148932 -0.00382169757471 -0.981016971627 -0.00381681684389 -0.981022281424 -0.0758488589851 0.0103733021921
1.29 -0.0761185132489 0.00952150119761 -0.00504812431137 -0.980979794146 -0.00504327861402 -0.980985092557 -0.0761012120252 0.0104767536854
1.291 -0.0763722798757 0.00962405606489 -0.006274516572 -0.980940988526 -0.00626970594669 -0.980946275365 -0.0763537316243 0.0105808500344
1.292 -0.0766262155324 0.00972725705758 -0.00750087194281 -0.980900554508 -0.00749609642571 -0.980905829587 -0.0766064161594 0.0106855921969
1.293 -0.0768803185939 0.00983110513783 -0.00872718800794 -0.980858491837 -0.00872244763282 -0.980863754971 -0.0768592640036 0.0107909811263
1.294 -0.0771345874316 0.00993560126352 -0.00995346234947 -0.980814800261 -0.00994875714769 -0.980820051266 -0.0771122735267 0.0108970177721
1.295 -0.0773890204134 0.0100407463882 -0.0111796925474 -0.980769479535 -0.011175022548 -0.980774718226 -0.0773654430949 0.0110037030791
1.296 -0.0776436159036 0.0101465414612 -0.0124058761797 -0.980722529416 -0.0124012414093 -0.980727755613 -0.0776187710706 0.0111110379881
1.297 -0.0778983722628 0.0102529874275 -0.0136320108224 -0.980673949669 -0.0136274113052 -0.980679163189 -0.077872255813 0.0112190234353
1.298 -0.0781532878481 0.0103600852277 -0.0148580940493 -0.980623740059 -0.0148535298073 -0.980628940723 -0.0781258956774 0.0113276603529
1.299 -0.0784083610132 0.010467835798 -0.0160841234323 -0.980571900361 -0.0160795944853 -0.980577087989 -0.0783796890161 0.0114369496684
1.3 -0.0786635901081 0.0105762400705 -0.0173100965414 -0.980518430351 -0.0173056029067 -0.980523604766 -0.0786336341772 0.0115468923052
1.301 -0.0789189734794 0.0106852989728 -0.0185360109445 -0.980463329811 -0.0185315526371 -0.980468490836 -0.078887729506 0.0116574891822
1.302 -0.0791745094701 0.010795013428 -0.0197618642076 -0.980406598527 -0.0197574412402 -0.980411745986 -0.0791419733438 0.0117687412141
1.303 -0.0794301964196 0.0109053843551 -0.0209876538946 -0.98034823629 -0.0209832662779 -0.98035337001 -0.0793963640286 0.0118806493109
1.304 -0.0796860326642 0.0110164126683 -0.0222133775676 -0.980288242897 -0.0222090253098 -0.980293362704 -0.0796508998951 0.0119932143787
1.305 -0.0799420165364 0.0111280992779 -0.0234390327866 -0.980226618148 -0.0234347158938 -0.980231723869 -0.0799055792742 0.0121064373186
1.306 -0.0801981463652 0.0112404450894 -0.0246646171099 -0.980163361849 -0.0246603355859 -0.980168453313 -0.0801604004937 0.0122203190277
1.307 -0.0804544204764 0.011353451004 -0.0258901280937 -0.980098473809 -0.0258858819401 -0.980103550847 -0.0804153618777 0.0123348603985
1.308 -0.0807108371922 0.0114671179185 -0.0271155632924 -0.980031953843 -0.0271113525087 -0.980037016286 -0.0806704617471 0.0124500623192
1.309 -0.0809673948313 0.0115814467252 -0.0283409202584 -0.979963801772 -0.0283367448419 -0.979968849451 -0.0809256984193 0.0125659256734
1.31 -0.0812240917093 0.011696438312 -0.0295661965423 -0.979894017419 -0.0295620564881 -0.979899050169 -0.0811810702082 0.0126824513402
1.311 -0.081480926138 0.0118120935621 -0.0307913896928 -0.979822600613 -0.0307872849939 -0.979827618269 -0.0814365754245 0.0127996401944
1.312 -0.0817378964261 0.0119284133546 -0.0320164972568 -0.97974955119 -0.032012427904 -0.979754553587 -0.0816922123753 0.0129174931062
1.313 -0.0819950008788 0.0120453985638 -0.0332415167793 -0.979674868986 -0.0332374827613 -0.979679855961 -0.0819479793647 0.0130360109413
1.314 -0.0822522377978 0.0121630500596 -0.0344664458035 -0.979598553847 -0.0344624471069 -0.979603525239 -0.0822038746931 0.013155194561
1.315 -0.0825096054818 0.0122813687074 -0.0356912818707 -0.979520605619 -0.0356873184801 -0.979525561267 -0.0824598966577 0.0132750448219
1.316 -0.0827671022257 0.0124003553681 -0.0369160225205 -0.979441024158 -0.0369120944184 -0.979445963903 -0.0827160435523 0.0133955625763
1.317 -0.0830247263215 0.012520010898 -0.0381406652907 -0.979359809319 -0.0381367724575 -0.979364733003 -0.0829723136676 0.0135167486717
1.318 -0.0832824760576 0.0126403361488 -0.0393652077172 -0.979276960968 -0.0393613501312 -0.979281868433 -0.0832287052907 0.0136386039512
1.319 -0.0835403497192 0.0127613319678 -0.0405896473343 -0.97919247897 -0.0405858249719 -0.979197370062 -0.0834852167057 0.0137611292534
1.32 -0.0837983455881 0.0128829991976 -0.0418139816744 -0.9791063632 -0.0418101945099 -0.979111237763 -0.0837418461932 0.0138843254123
1.321 -0.084056461943 0.0130053386763 -0.0430382082683 -0.979018613534 -0.0430344562739 -0.979023471414 -0.0839985920307 0.0140081932571
1.322 -0.0843146970591 0.0131283512374 -0.0442623246448 -0.978929229854 -0.0442586077909 -0.978934070901 -0.0842554524922 0.0141327336126
1.323 -0.0845730492084 0.0132520377097 -0.0454863283313 -0.978838212048 -0.0454826465862 -0.97884303611 -0.0845124258487 0.0142579472991
1.324 -0.0848315166598 0.0133763989175 -0.0467102168532 -0.978745560009 -0.0467065701834 -0.978750366936 -0.0847695103678 0.014383835132
1.325 -0.0850900976789 0.0135014356804 -0.0479339877346 -0.978651273632 -0.0479303761044 -0.978656063276 -0.0850267043141 0.0145103979224
1.326 -0.0853487905279 0.0136271488134 -0.0491576384974 -0.97855535282 -0.0491540618695 -0.978560125035 -0.0852840059488 0.0146376364764
1.327 -0.0856075934659 0.0137535391269 -0.0503811666623 -0.978457797481 -0.0503776249971 -0.978462552119 -0.0855414135299 0.0147655515958
1.328 -0.0858665047489 0.0138806074265 -0.051604569748 -0.978358607525 -0.0516010630043 -0.978363344442 -0.0857989253123 0.0148941440775
1.329 -0.0861255226295 0.0140083545134 -0.0528278452718 -0.978257782869 -0.0528243734063 -0.978262501922 -0.0860565395477 0.0150234147138
1.33 -0.0863846453574 0.0141367811838 -0.0540509907492 -0.978155323436 -0.0540475537169 -0.978160024482 -0.0863142544847 0.0151533642925
1.331 -0.0866438711788 0.0142658882295 -0.0552740036941 -0.978051229151 -0.0552706014482 -0.97805591205 -0.0865720683686 0.0152839935963
1.332 -0.086903198337 0.0143956764374 -0.056496881619 -0.977945499946 -0.0564935141105 -0.977950164558 -0.0868299794417 0.0154153034037
1.333 -0.087162625072 0.0145261465897 -0.0577196220345 -0.977838135759 -0.0577162892129 -0.977842781945 -0.0870879859431 0.0155472944881
1.334 -0.0874221496208 0.014657299464 -0.0589422224498 -0.97772913653 -0.0589389242626 -0.977733764153 -0.0873460861088 0.0156799676183
1.335 -0.0876817702171 0.0147891358332 -0.0601646803726 -0.977618502205 -0.0601614167655 -0.97762311113 -0.0876042781718 0.0158133235585
1.336 -0.0879414850918 0.0149216564653 -0.0613869933087 -0.977506232737 -0.0613837642259 -0.977510822829 -0.0878625603618 0.0159473630679
1.337 -0.0882012924723 0.0150548621236 -0.0626091587629 -0.977392328083 -0.0626059641464 -0.977396899207 -0.0881209309057 0.0160820869012
1.338 -0.0884611905833 0.0151887535666 -0.0638311742379 -0.977276788202 -0.0638280140282 -0.977281340228 -0.0883793880271 0.0162174958083
1.339 -0.0887211776462 0.0153233315483 -0.0650530372354 -0.977159613063 -0.0650499113711 -0.977164145859 -0.0886379299467 0.0163535905341
1.34 -0.0889812518793 0.0154585968175 -0.0662747452551 -0.977040802636 -0.0662716536733 -0.977045316073 -0.088896554882 0.016490371819
1.341 -0.0892414114981 0.0155945501186 -0.0674962957957 -0.976920356899 -0.0674932384315 -0.976924850848 -0.0891552610477 0.0166278403984
1.342 -0.0895016547148 0.0157311921908 -0.068717686354 -0.976798275833 -0.068714663141 -0.976802750167 -0.0894140466552 0.016765997003
1.343 -0.0897619797388 0.0158685237689 -0.0699389144256 -0.976674559424 -0.0699359252956 -0.976679014018 -0.0896729099132 0.0169048423587
1.344 -0.0900223847763 0.0160065455825 -0.0711599775046 -0.976549207664 -0.0711570223878 -0.976553642394 -0.0899318490272 0.0170443771866
1.345 -0.0902828680307 0.0161452583568 -0.0723808730836 -0.976422220551 -0.0723779519084 -0.976426635293 -0.0901908621999 0.0171846022028
1.346 -0.0905434277022 0.0162846628116 -0.0736015986538 -0.976293598085 -0.0735987113471 -0.976297992718 -0.0904499476307 0.0173255181186
1.347 -0.0908040619882 0.0164247596624 -0.0748221517051 -0.976163340275 -0.0748192981921 -0.976167714678 -0.0907091035165 0.0174671256407
1.348 -0.0910647690831 0.0165655496194 -0.0760425297257 -0.976031447132 -0.07603970993 -0.976035801185 -0.0909683280508 0.0176094254707
1.349 -0.0913255471782 0.0167070333882 -0.0772627302028 -0.975897918673 -0.0772599440464 -0.975902252259 -0.0912276194246 0.0177524183053
1.35 -0.0915863944622 0.0168492116694 -0.0784827506221 -0.975762754921 -0.0784799980252 -0.975767067923 -0.0914869758258 0.0178961048364
1.351 -0.0918473091205 0.0169920851587 -0.0797025884677 -0.975625955902 -0.0796998693492 -0.975630248206 -0.0917463954392 0.018040485751
1.352 -0.0921082893358 0.0171356545471 -0.0809222412226 -0.97548752165 -0.0809195554998 -0.975491793141 -0.0920058764471 0.0181855617312
1.353 -0.092369333288 0.0172799205202 -0.0821417063686 -0.975347452202 -0.0821390539571 -0.975351702767 -0.0922654170285 0.0183313334542
1.354 -0.0926304391539 0.0174248837593 -0.0833609813858 -0.975205747601 -0.0833583621997 -0.975209977129 -0.09252501536 0.0184778015922
1.355 -0.0928916051074 0.0175705449403 -0.0845800637533 -0.975062407895 -0.0845774777053 -0.975066616276 -0.0927846696149 0.0186249668124
1.356 -0.0931528293199 0.0177169047342 -0.0857989509489 -0.974917433136 -0.08579639795 -0.974921620262 -0.0930443779639 0.0187728297774
1.357 -0.0934141099595 0.0178639638074 -0.0870176404488 -0.974770823383 -0.0870151204087 -0.974774989146 -0.0933041385749 0.0189213911444
1.358 -0.0936754451917 0.0180117228209 -0.0882361297284 -0.974622578699 -0.0882336425552 -0.974626722993 -0.0935639496129 0.019070651566
1.359 -0.0939368331793 0.018160182431 -0.0894544162616 -0.974472699153 -0.0894519618619 -0.974476821873 -0.0938238092401 0.0192206116896
1.36 -0.0941982720821 0.0183093432888 -0.090672497521 -0.974321184818 -0.0906700758 -0.974325285862 -0.094083715616 0.0193712721576
1.361 -0.0944597600571 0.0184592060407 -0.0918903709782 -0.974168035774 -0.0918879818396 -0.974172115039 -0.0943436668971 0.0195226336076
1.362 -0.0947212952585 0.0186097713278 -0.0931080341034 -0.974013252104 -0.0931056774496 -0.974017309489 -0.0946036612374 0.0196746966721
1.363 -0.094982875838 0.0187610397864 -0.0943254843657 -0.973856833898 -0.0943231600976 -0.973860869304 -0.094863696788 0.0198274619785
1.364 -0.0952444999443 0.0189130120476 -0.095542719233 -0.97369878125 -0.0955404272501 -0.973702794579 -0.0951237716973 0.0199809301492
1.365 -0.0955061657233 0.0190656887376 -0.096759736172 -0.97353909426 -0.0967574763724 -0.973543085415 -0.0953838841111 0.0201351018018
1.366 -0.0957678713183 0.0192190704775 -0.0979765326484 -0.973377773033 -0.0979743049288 -0.973381741918 -0.0956440321722 0.0202899775484
1.367 -0.09602961487 0.0193731578834 -0.0991931061266 -0.973214817678 -0.0991909103824 -0.973218764201 -0.0959042140209 0.0204455579966
1.368 -0.0962913945161 0.0195279515662 -0.10040945407 -0.973050228312 -0.100407290195 -0.973054152379 -0.0961644277948 0.0206018437484
1.369 -0.0965532083918 0.0196834521318 -0.101625573941 -0.972884005055 -0.101623441828 -0.972887906574 -0.0964246716288 0.0207588354011
1.37 -0.0968150546297 0.0198396601812 -0.1028414632 -0.972716148032 -0.10283936274 -0.972720026914 -0.0966849436552 0.0209165335468
1.371 -0.0970769313595 0.0199965763099 -0.104057119307 -0.972546657375 -0.104055050392 -0.972550513531 -0.0969452420036 0.0210749387724
1.372 -0.0973388367084 0.0201542011088 -0.105272539722 -0.97237553322 -0.105270502239 -0.972379366563 -0.0972055648008 0.0212340516599
1.373 -0.0976007688009 0.0203125351632 -0.106487721903 -0.972202775709 -0.10648571574 -0.972206586153 -0.0974659101714 0.0213938727861
1.374 -0.097862725759 0.0204715790536 -0.107702663306 -0.972028384989 -0.107700688349 -0.972032172449 -0.0977262762369 0.0215544027225
1.375 -0.0981247057019 0.0206313333552 -0.108917361387 -0.971852361211 -0.108915417521 -0.971856125604 -0.0979866611167 0.0217156420359
1.376 -0.0983867067464 0.0207917986383 -0.110131813601 -0.971674704534 -0.11012990071 -0.971678445778 -0.0982470629271 0.0218775912874
1.377 -0.0986487270065 0.0209529754677 -0.111346017402 -0.97149541512 -0.111344135368 -0.971499133134 -0.0985074797822 0.0220402510335
1.378 -0.0989107645938 0.0211148644033 -0.112559970243 -0.971314493137 -0.112558118948 -0.971318187843 -0.0987679097935 0.0222036218251
1.379 -0.0991728176172 0.0212774659997 -0.113773669576 -0.971131938758 -0.113771848899 -0.971135610077 -0.0990283510699 0.0223677042083
1.38 -0.0994348841832 0.0214407808064 -0.114987112851 -0.970947752162 -0.114985322672 -0.970951400018 -0.0992888017177 0.0225324987236
1.381 -0.0996969623958 0.0216048093677 -0.116200297519 -0.970761933533 -0.116198537716 -0.970765557852 -0.0995492598407 0.0226980059067
1.382 -0.0999590503562 0.0217695522226 -0.117413221029 -0.970574483061 -0.117411491478 -0.970578083767 -0.0998097235404 0.0228642262879
1.383 -0.100221146163 0.021935009905 -0.118625880829 -0.970385400939 -0.118624181405 -0.970388977961 -0.100070190916 0.0230311603924
1.384 -0.100483247914 0.0221011829437 -0.119838274367 -0.970194687369 -0.119836604944 -0.970198240635 -0.100330660063 0.0231988087401
1.385 -0.100745353701 0.0222680718619 -0.121050399088 -0.970002342554 -0.12104875954 -0.970005871995 -0.100591129076 0.0233671718456
1.386 -0.101007461617 0.0224356771779 -0.122262252438 -0.969808366707 -0.122260642638 -0.969811872254 -0.100851596046 0.0235362502185
1.387 -0.10126956975 0.0226039994046 -0.123473831863 -0.969612760042 -0.123472251681 -0.969616241629 -0.101112059062 0.0237060443629
1.388 -0.101531676187 0.0227730390497 -0.124685134806 -0.969415522781 -0.124683584111 -0.969418980342 -0.101372516212 0.0238765547779
1.389 -0.101793779013 0.0229427966157 -0.125896158709 -0.969216655152 -0.125894637372 -0.969220088622 -0.101632965579 0.0240477819572
1.39 -0.102055876308 0.0231132725997 -0.127106901016 -0.969016157385 -0.127105408903 -0.969019566701 -0.101893405244 0.0242197263891
1.391 -0.102317966153 0.0232844674936 -0.128317359168 -0.968814029718 -0.128315896146 -0.96881741482 -0.102153833289 0.0243923885568
1.392 -0.102580046623 0.0234563817838 -0.129527530605 -0.968610272395 -0.129526096541 -0.968613633221 -0.102414247788 0.0245657689382
1.393 -0.102842115794 0.0236290159518 -0.130737412767 -0.968404885664 -0.130736007525 -0.968408222155 -0.102674646818 0.0247398680059
1.394 -0.103104171738 0.0238023704735 -0.131947003094 -0.968197869777 -0.131945626538 -0.968201181877 -0.102935028451 0.024914686227
1.395 -0.103366212525 0.0239764458195 -0.133156299024 -0.967989224995 -0.133154951016 -0.967992512647 -0.103195390757 0.0250902240636
1.396 -0.103628236222 0.0241512424551 -0.134365297995 -0.967778951581 -0.134363978397 -0.96778221473 -0.103455731803 0.0252664819722
1.397 -0.103890240895 0.0243267608404 -0.135573997443 -0.967567049805 -0.135572706116 -0.967570288398 -0.103716049654 0.0254434604041
1.398 -0.104152224606 0.0245030014298 -0.136782394806 -0.967353519944 -0.136781131609 -0.967356733928 -0.103976342375 0.0256211598052
1.399 -0.104414185416 0.0246799646728 -0.137990487518 -0.967138362276 -0.137989252312 -0.967141551601 -0.104236608026 0.0257995806161
1.4 -0.104676121384 0.0248576510132 -0.139198273015 -0.966921577089 -0.139197065656 -0.966924741706 -0.104496844666 0.025978723272
1.401 -0.104938030565 0.0250360608896 -0.140405748731 -0.966703164673 -0.140404569077 -0.966706304534 -0.10475705035 0.0261585882027
1.402 -0.105199911013 0.025215194735 -0.141612912101 -0.966483125327 -0.141611760007 -0.966486240384 -0.105017223134 0.0263391758326
1.403 -0.105461760781 0.0253950529773 -0.142819760556 -0.966261459352 -0.142818635879 -0.96626454956 -0.105277361069 0.0265204865809
1.404 -0.105723577917 0.0255756360389 -0.144026291529 -0.966038167055 -0.144025194123 -0.966041232371 -0.105537462205 0.0267025208612
1.405 -0.105985360468 0.0257569443365 -0.145232502454 -0.965813248752 -0.145231432172 -0.965816289132 -0.10579752459 0.0268852790817
1.406 -0.106247106481 0.0259389782819 -0.14643839076 -0.965586704759 -0.146437347455 -0.965589720162 -0.106057546268 0.0270687616452
1.407 -0.106508813996 0.026121738281 -0.147643953879 -0.965358535401 -0.147642937403 -0.965361525788 -0.106317525284 0.0272529689492
1.408 -0.106770481056 0.0263052247345 -0.14884918924 -0.965128741009 -0.148848199445 -0.965131706341 -0.106577459677 0.0274379013857
1.409 -0.107032105699 0.0264894380377 -0.150054094275 -0.964897321916 -0.15005313101 -0.964900262156 -0.106837347488 0.0276235593411
1.41 -0.107293685961 0.0266743785802 -0.151258666412 -0.964664278465 -0.151257729527 -0.964667193576 -0.107097186753 0.0278099431966
1.411 -0.107555219876 0.0268600467465 -0.152462903079 -0.964429611 -0.152461992423 -0.964432500948 -0.107356975507 0.0279970533277
1.412 -0.107816705477 0.0270464429153 -0.153666801706 -0.964193319874 -0.153665917126 -0.964196184626 -0.107616711782 0.0281848901046
1.413 -0.108078140793 0.0272335674599 -0.15487035972 -0.963955405443 -0.154869501064 -0.963958244967 -0.107876393609 0.028373453892
1.414 -0.108339523853 0.0274214207482 -0.156073574548 -0.96371586807 -0.156072741662 -0.963718682335 -0.108136019017 0.0285627450489
1.415 -0.108600852683 0.0276100031425 -0.157276443617 -0.963474708123 -0.157275636348 -0.963477497101 -0.108395586032 0.0287527639292
1.416 -0.108862125307 0.0277993149997 -0.158478964355 -0.963231925976 -0.158478182546 -0.963234689638 -0.108655092678 0.0289435108809
1.417 -0.109123339746 0.0279893566711 -0.159681134186 -0.962987522008 -0.159680377683 -0.962990260328 -0.108914536979 0.0291349862468
1.418 -0.10938449402 0.0281801285026 -0.160882950538 -0.962741496603 -0.160882219183 -0.962744209555 -0.109173916953 0.0293271903639
1.419 -0.109645586148 0.0283716308343 -0.162084410834 -0.962493850152 -0.162083704471 -0.962496537713 -0.109433230621 0.0295201235639
1.42 -0.109906614144 0.028563864001 -0.163285512501 -0.962244583049 -0.163284830972 -0.962247245197 -0.109692475998 0.0297137861727
1.421 -0.110167576024 0.0287568283318 -0.164486252963 -0.961993695697 -0.16448559611 -0.961996332409 -0.109951651098 0.029908178511
1.422 -0.110428469799 0.0289505241505 -0.165686629645 -0.961741188502 -0.165685997308 -0.961743799759 -0.110210753936 0.0301033008937
1.423 -0.110689293478 0.0291449517749 -0.16688663997 -0.961487061876 -0.16688603199 -0.96148964766 -0.11046978252 0.0302991536302
1.424 -0.110950045071 0.0293401115177 -0.168086281362 -0.961231316237 -0.168085697579 -0.96123387653 -0.11072873486 0.0304957370242
1.425 -0.111210722582 0.0295360036856 -0.169285551245 -0.960973952008 -0.169284991497 -0.960976486794 -0.110987608962 0.0306930513741
1.426 -0.111471324017 0.02973262858 -0.170484447043 -0.960714969618 -0.170483911169 -0.960717478883 -0.111246402833 0.0308910969724
1.427 -0.111731847378 0.0299299864965 -0.171682966177 -0.960454369502 -0.171682454015 -0.960456853232 -0.111505114473 0.0310898741063
1.428 -0.111992290666 0.0301280777252 -0.172881106071 -0.960192152098 -0.172880617459 -0.960194610282 -0.111763741886 0.0312893830571
1.429 -0.112252651878 0.0303269025506 -0.174078864148 -0.959928317854 -0.174078398922 -0.959930750481 -0.11202228307 0.0314896241006
1.43 -0.112512929012 0.0305264612516 -0.17527623783 -0.95966286722 -0.175275795827 -0.95966527428 -0.112280736023 0.0316905975071
1.431 -0.112773120062 0.0307267541012 -0.176473224539 -0.959395800652 -0.176472805594 -0.959398182138 -0.112539098741 0.0318923035411
1.432 -0.113033223023 0.0309277813671 -0.177669821697 -0.959127118613 -0.177669425645 -0.959129474517 -0.112797369217 0.0320947424615
1.433 -0.113293235885 0.0311295433111 -0.178866026726 -0.95885682157 -0.178865653402 -0.958859151888 -0.113055545443 0.0322979145216
1.434 -0.113553156638 0.0313320401895 -0.180061837047 -0.958584909997 -0.180061486286 -0.958587214725 -0.113313625411 0.032501819969
1.435 -0.113812983269 0.0315352722529 -0.181257250084 -0.958311384373 -0.181256921719 -0.958313663507 -0.113571607109 0.0327064590456
1.436 -0.114072713765 0.0317392397461 -0.182452263256 -0.958036245183 -0.18245195712 -0.958038498721 -0.113829488523 0.0329118319878
1.437 -0.114332346111 0.0319439429084 -0.183646873986 -0.957759492916 -0.183646589912 -0.957761720859 -0.114087267639 0.0331179390261
1.438 -0.114591878288 0.0321493819733 -0.184841079694 -0.957481128067 -0.184840817515 -0.957483330416 -0.114344942441 0.0333247803853
1.439 -0.114851308278 0.0323555571685 -0.186034877803 -0.957201151139 -0.18603463735 -0.957203327897 -0.11460251091 0.0335323562848
1.44 -0.115110634059 0.0325624687162 -0.187228265733 -0.956919562639 -0.187228046838 -0.956921713808 -0.114859971026 0.033740666938
1.441 -0.115369853611 0.0327701168328 -0.188421240905 -0.956636363078 -0.188421043399 -0.956638488664 -0.115117320768 0.0339497125526
1.442 -0.115628964907 0.0329785017289 -0.189613800742 -0.956351552975 -0.189613624455 -0.956353652983 -0.115374558113 0.0341594933307
1.443 -0.115887965923 0.0331876236094 -0.190805942664 -0.956065132853 -0.190805787427 -0.956067207292 -0.115631681035 0.0343700094687
1.444 -0.116146854631 0.0333974826736 -0.191997664093 -0.955777103242 -0.191997529735 -0.95577915212 -0.115888687509 0.0345812611571
1.445 -0.116405629003 0.0336080791148 -0.193188962449 -0.955487464677 -0.193188848801 -0.955489488004 -0.116145575506 0.0347932485807
1.446 -0.116664287007 0.0338194131208 -0.194379835155 -0.955196217698 -0.194379742045 -0.955198215486 -0.116402342997 0.0350059719187
1.447 -0.116922826612 0.0340314848735 -0.195570279631 -0.954903362851 -0.195570206888 -0.954905335112 -0.116658987951 0.0352194313444
1.448 -0.117181245783 0.0342442945489 -0.1967602933 -0.954608900688 -0.196760240752 -0.954610847436 -0.116915508334 0.0354336270252
1.449 -0.117439542486 0.0344578423174 -0.197949873583 -0.954312831767 -0.197949841059 -0.954314753017 -0.117171902113 0.035648559123
1.45 -0.117697714683 0.0346721283437 -0.199139017901 -0.95401515665 -0.199139005229 -0.954017052419 -0.117428167252 0.0358642277937
1.451 -0.117955760337 0.0348871527864 -0.200327723678 -0.953715875907 -0.200327730684 -0.953717746211 -0.117684301714 0.0360806331876
1.452 -0.118213677407 0.0351029157986 -0.201515988334 -0.953414990111 -0.201516014846 -0.95341683497 -0.117940303459 0.036297775449
1.453 -0.118471463852 0.0353194175273 -0.202703809292 -0.953112499842 -0.202703855138 -0.953114319276 -0.118196170448 0.0365156547164
1.454 -0.118729117629 0.035536658114 -0.203891183974 -0.952808405686 -0.20389124898 -0.952810199716 -0.118451900639 0.0367342711227
1.455 -0.118986636694 0.0357546376941 -0.205078109804 -0.952502708233 -0.205078193797 -0.952504476883 -0.118707491988 0.0369536247948
1.456 -0.119244019002 0.0359733563973 -0.206264584203 -0.952195408082 -0.206264687009 -0.952197151375 -0.118962942451 0.0371737158538
1.457 -0.119501262505 0.0361928143473 -0.207450604596 -0.951886505834 -0.20745072604 -0.951888223795 -0.119218249983 0.0373945444148
1.458 -0.119758365154 0.0364130116623 -0.208636168405 -0.951576002098 -0.208636308314 -0.951577694753 -0.119473412535 0.0376161105875
1.459 -0.1200153249 0.0366339484542 -0.209821273054 -0.951263897487 -0.209821431253 -0.951265564863 -0.119728428059 0.0378384144752
1.46 -0.120272139692 0.0368556248294 -0.211005915967 -0.95095019262 -0.211006092282 -0.950951834747 -0.119983294505 0.0380614561756
1.461 -0.120528807476 0.0370780408882 -0.212190094568 -0.950634888124 -0.212190288823 -0.950636505031 -0.120238009821 0.0382852357807
1.462 -0.120785326198 0.0373011967251 -0.213373806282 -0.950317984627 -0.213374018303 -0.950319576346 -0.120492571955 0.0385097533763
1.463 -0.121041693805 0.0375250924286 -0.214557048533 -0.949999482768 -0.214557278145 -0.95000104933 -0.120746978852 0.0387350090425
1.464 -0.121297908237 0.0377497280816 -0.215739818746 -0.949679383187 -0.215740065774 -0.949680924627 -0.121001228457 0.0389610028535
1.465 -0.121553967439 0.0379751037608 -0.216922114348 -0.949357686533 -0.216922378616 -0.949359202885 -0.121255318713 0.0391877348774
1.466 -0.121809869349 0.0382012195371 -0.218103932765 -0.949034393458 -0.218104214096 -0.94903588476 -0.121509247562 0.0394152051767
1.467 -0.122065611909 0.0384280754755 -0.219285271421 -0.948709504623 -0.219285569641 -0.94871097091 -0.121763012945 0.0396434138078
1.468 -0.122321193056 0.0386556716349 -0.220466127745 -0.948383020692 -0.220466442678 -0.948384462002 -0.122016612802 0.0398723608212
1.469 -0.122576610727 0.0388840080687 -0.221646499164 -0.948054942334 -0.221646830633 -0.948056358709 -0.122270045071 0.0401020462615
1.47 -0.122831862858 0.0391130848238 -0.222826383104 -0.947725270227 -0.222826730935 -0.947726661706 -0.122523307688 0.0403324701673
1.471 -0.123086947383 0.0393429019415 -0.224005776995 -0.947394005051 -0.22400614101 -0.947395371676 -0.122776398591 0.0405636325713
1.472 -0.123341862236 0.0395734594572 -0.225184678264 -0.947061147495 -0.225185058289 -0.947062489309 -0.123029315712 0.0407955335003
1.473 -0.12359660535 0.0398047574001 -0.226363084341 -0.946726698251 -0.226363480198 -0.946728015299 -0.123282056987 0.041028172975
1.474 -0.123851174655 0.0400367957935 -0.227540992656 -0.946390658018 -0.227541404169 -0.946391950345 -0.123534620348 0.0412615510103
1.475 -0.124105568081 0.0402695746549 -0.228718400638 -0.9460530275 -0.228718827631 -0.946054295153 -0.123787003726 0.0414956676151
1.476 -0.124359783557 0.0405030939955 -0.229895305718 -0.945713807408 -0.229895748015 -0.945715050435 -0.12403920505 0.0417305227921
1.477 -0.124613819011 0.0407373538209 -0.231071705327 -0.945372998457 -0.231072162753 -0.945374216906 -0.124291222251 0.0419661165384
1.478 -0.124867672369 0.0409723541303 -0.232247596898 -0.945030601369 -0.232248069275 -0.945031795291 -0.124543053257 0.0422024488446
1.479 -0.125121341557 0.0412080949173 -0.233422977862 -0.94468661687 -0.233423465014 -0.944687786317 -0.124794695993 0.0424395196958
1.48 -0.1253748245 0.041444576169 -0.234597845653 -0.944341045695 -0.234598347404 -0.944342190717 -0.125046148388 0.0426773290709
1.481 -0.125628119121 0.041681797867 -0.235772197704 -0.943993888581 -0.235772713877 -0.943995009233 -0.125297408364 0.0429158769426
1.482 -0.125881223342 0.0419197599866 -0.23694603145 -0.943645146272 -0.236946561869 -0.943646242608 -0.125548473846 0.0431551632778
1.483 -0.126134135086 0.042158462497 -0.238119344325 -0.943294819518 -0.238119888814 -0.943295891595 -0.125799342758 0.0433951880373
1.484 -0.126386852272 0.0423979053615 -0.239292133765 -0.942942909075 -0.239292692149 -0.942943956949 -0.126050013021 0.0436359511759
1.485 -0.12663937282 0.0426380885374 -0.240464397207 -0.942589415705 -0.240464969308 -0.942590439434 -0.126300482556 0.0438774526424
1.486 -0.126891694648 0.0428790119758 -0.241636132086 -0.942234340173 -0.24163671773 -0.942235339816 -0.126550749284 0.0441196923793
1.487 -0.127143815675 0.0431206756218 -0.242807335842 -0.941877683253 -0.242807934852 -0.941878658871 -0.126800811122 0.0443626703233
1.488 -0.127395733817 0.0433630794144 -0.243978005913 -0.941519445724 -0.243978618114 -0.941520397377 -0.127050665991 0.044606386405
1.489 -0.127647446989 0.0436062232867 -0.245148139737 -0.941159628368 -0.245148764953 -0.941160556119 -0.127300311807 0.0448508405489
1.49 -0.127898953108 0.0438501071655 -0.246317734756 -0.940798231976 -0.246318372811 -0.940799135889 -0.127549746486 0.0450960326734
1.491 -0.128150250086 0.0440947309717 -0.247486788409 -0.940435257343 -0.247487439128 -0.940436137483 -0.127798967944 0.0453419626908
1.492 -0.128401335837 0.0443400946199 -0.248655298139 -0.940070705271 -0.248655961346 -0.940071561702 -0.128047974097 0.0455886305073
1.493 -0.128652208274 0.0445861980188 -0.249823261387 -0.939704576566 -0.249823936909 -0.939705409356 -0.128296762857 0.0458360360231
1.494 -0.128902865307 0.0448330410708 -0.250990675598 -0.93933687204 -0.250991363258 -0.939337681257 -0.128545332139 0.0460841791322
1.495 -0.129153304849 0.0450806236724 -0.252157538215 -0.938967592512 -0.252158237839 -0.938968378224 -0.128793679854 0.0463330597227
1.496 -0.129403524808 0.0453289457139 -0.253323846683 -0.938596738806 -0.253324558097 -0.938597501083 -0.129041803915 0.0465826776762
1.497 -0.129653523095 0.0455780070794 -0.254489598449 -0.93822431175 -0.254490321477 -0.938225050665 -0.129289702232 0.0468330328684
1.498 -0.129903297617 0.045827807647 -0.255654790959 -0.937850312182 -0.255655525428 -0.937851027804 -0.129537372715 0.0470841251691
1.499 -0.130152846282 0.0460783472885 -0.256819421661 -0.93747474094 -0.256820167397 -0.937475433345 -0.129784813274 0.0473359544415
1.5 -0.130402166998 0.0463296258697 -0.257983488003 -0.937097598873 -0.257984244832 -0.937098268133 -0.130032021818 0.047588520543
1.501 -0.130651257671 0.0465816432502 -0.259146987436 -0.936718886832 -0.259147755185 -0.936719533023 -0.130278996254 0.0478418233247
1.502 -0.130900116206 0.0468343992834 -0.26030991741 -0.936338605676 -0.260310695905 -0.936339228874 -0.13052573449 0.0480958626317
1.503 -0.131148740509 0.0470878938167 -0.261472275377 -0.935956756267 -0.261473064445 -0.93595735655 -0.130772234433 0.0483506383026
1.504 -0.131397128483 0.0473421266911 -0.262634058789 -0.935573339477 -0.262634858257 -0.935573916922 -0.131018493989 0.0486061501704
1.505 -0.131645278034 0.0475970977415 -0.263795265101 -0.935188356179 -0.263796074796 -0.935188910866 -0.131264511064 0.0488623980613
1.506 -0.131893187064 0.0478528067969 -0.264955891766 -0.934801807254 -0.264956711517 -0.934802339264 -0.131510283561 0.0491193817957
1.507 -0.132140853475 0.0481092536796 -0.26611593624 -0.934413693589 -0.266116765875 -0.934414203003 -0.131755809387 0.0493771011879
1.508 -0.132388275169 0.0483664382062 -0.267275395982 -0.934024016077 -0.267276235328 -0.934024502977 -0.132001086444 0.0496355560456
1.509 -0.132635450049 0.0486243601868 -0.268434268447 -0.933632775615 -0.268435117334 -0.933633240084 -0.132246112636 0.0498947461708
1.51 -0.132882376015 0.0488830194253 -0.269592551097 -0.933239973106 -0.269593409352 -0.933240415228 -0.132490885865 0.0501546713588
1.511 -0.133129050967 0.0491424157197 -0.27075024139 -0.932845609461 -0.270751108844 -0.932846029321 -0.132735404034 0.0504153313992
1.512 -0.133375472806 0.0494025488614 -0.271907336788 -0.932449685593 -0.27190821327 -0.932450083278 -0.132979665045 0.0506767260749
1.513 -0.13362163943 0.0496634186357 -0.273063834754 -0.932052202424 -0.273064720094 -0.932052578021 -0.133223666798 0.0509388551629
1.514 -0.13386754874 0.0499250248219 -0.274219732751 -0.931653160879 -0.27422062678 -0.931653514477 -0.133467407195 0.0512017184339
1.515 -0.134113198632 0.0501873671927 -0.275375028245 -0.931252561891 -0.275375930792 -0.931252893578 -0.133710884136 0.0514653156524
1.516 -0.134358587006 0.0504504455149 -0.276529718701 -0.930850406398 -0.276530629598 -0.930850716264 -0.133954095521 0.0517296465766
1.517 -0.13460371176 0.0507142595487 -0.277683801587 -0.930446695343 -0.277684720665 -0.930446983479 -0.134197039249 0.0519947109584
1.518 -0.13484857079 0.0509788090485 -0.278837274371 -0.930041429675 -0.278838201461 -0.930041696173 -0.134439713221 0.0522605085436
1.519 -0.135093161994 0.0512440937621 -0.279990134523 -0.929634610349 -0.279991069459 -0.929634855302 -0.134682115334 0.0525270390717
1.52 -0.135337483267 0.0515101134311 -0.281142379515 -0.929226238325 -0.281143322127 -0.929226461827 -0.134924243487 0.0527943022759
1.521 -0.135581532507 0.0517768677909 -0.282294006818 -0.928816314569 -0.282294956941 -0.928816516714 -0.135166095579 0.0530622978831
1.522 -0.13582530761 0.0520443565707 -0.283445013907 -0.928404840053 -0.283445971373 -0.928405020937 -0.135407669506 0.0533310256141
1.523 -0.136068806471 0.0523125794932 -0.284595398256 -0.927991815755 -0.2845963629 -0.927991975475 -0.135648963168 0.0536004851832
1.524 -0.136312026985 0.052581536275 -0.285745157342 -0.927577242657 -0.285746128998 -0.92757738131 -0.135889974461 0.0538706762987
1.525 -0.136554967048 0.0528512266263 -0.286894288643 -0.927161121749 -0.286895267145 -0.927161239433 -0.136130701282 0.0541415986623
1.526 -0.136797624554 0.0531216502512 -0.288042789638 -0.926743454025 -0.288043774821 -0.926743550839 -0.136371141529 0.0544132519697
1.527 -0.137039997398 0.0533928068474 -0.289190657807 -0.926324240485 -0.289191649507 -0.92632431653 -0.136611293097 0.0546856359101
1.528 -0.137282083475 0.0536646961061 -0.290337890633 -0.925903482135 -0.290338888686 -0.925903537511 -0.136851153883 0.0549587501664
1.529 -0.137523880679 0.0539373177126 -0.291484485599 -0.925481179986 -0.29148548984 -0.925481214796 -0.137090721784 0.0552325944153
1.53 -0.137765386904 0.0542106713454 -0.292630440189 -0.925057335056 -0.292631450457 -0.925057349402 -0.137329994696 0.0555071683272
1.531 -0.138006600044 0.0544847566772 -0.29377575189 -0.924631948368 -0.293776768022 -0.924631942353 -0.137568970514 0.0557824715662
1.532 -0.138247517993 0.0547595733739 -0.294920418189 -0.924205020949 -0.294921440023 -0.924204994678 -0.137807647135 0.0560585037899
1.533 -0.138488138644 0.0550351210954 -0.296064436577 -0.923776553835 -0.296065463951 -0.923776507413 -0.138046022453 0.0563352646497
1.534 -0.138728459892 0.0553113994952 -0.297207804544 -0.923346548064 -0.297208837297 -0.923346481597 -0.138284094366 0.0566127537907
1.535 -0.138968479629 0.0555884082204 -0.298350519582 -0.922915004683 -0.298351557553 -0.922914918278 -0.138521860769 0.0568909708517
1.536 -0.13920819575 0.0558661469117 -0.299492579185 -0.922481924742 -0.299493622215 -0.922481818507 -0.138759319556 0.057169915465
1.537 -0.139447606147 0.0561446152037 -0.300633980848 -0.922047309299 -0.300635028777 -0.922047183341 -0.138996468625 0.0574495872566
1.538 -0.139686708715 0.0564238127244 -0.301774722069 -0.921611159415 -0.301775774738 -0.921611013845 -0.139233305869 0.0577299858463
1.539 -0.139925501346 0.0567037390955 -0.302914800346 -0.921173476159 -0.302915857598 -0.921173311086 -0.139469829185 0.0580111108474
1.54 -0.140163981934 0.0569843939325 -0.304054213179 -0.920734260604 -0.304055274855 -0.920734076139 -0.139706036469 0.0582929618669
1.541 -0.140402148373 0.0572657768443 -0.305192958071 -0.92029351383 -0.305194024014 -0.920293310085 -0.139941925616 0.0585755385054
1.542 -0.140639998556 0.0575478874337 -0.306331032525 -0.919851236922 -0.306332102578 -0.91985101401 -0.140177494521 0.0588588403571
1.543 -0.140877530377 0.0578307252968 -0.307468434045 -0.91940743097 -0.307469508053 -0.919407189003 -0.140412741081 0.05914286701
1.544 -0.14111474173 0.0581142900236 -0.30860516014 -0.91896209707 -0.308606237946 -0.918961836164 -0.140647663192 0.0594276180455
1.545 -0.141351630508 0.0583985811975 -0.309741208316 -0.918515236325 -0.309742289767 -0.918514956594 -0.140882258749 0.0597130930389
1.546 -0.141588194606 0.0586835983958 -0.310876576086 -0.918066849842 -0.310877661027 -0.918066551401 -0.141116525649 0.0599992915587
1.547 -0.141824431918 0.0589693411892 -0.31201126096 -0.917616938735 -0.312012349237 -0.917616621699 -0.141350461788 0.0602862131675
1.548 -0.142060340338 0.0592558091421 -0.313145260453 -0.917165504121 -0.313146351914 -0.917165168609 -0.141584065062 0.060573857421
1.549 -0.142295917761 0.0595430018123 -0.31427857208 -0.916712547125 -0.314279666571 -0.916712193255 -0.141817333369 0.060862223869
1.55 -0.142531162081 0.0598309187514 -0.315411193358 -0.916258068878 -0.315412290729 -0.916257696767 -0.142050264606 0.0611513120545
1.551 -0.142766071193 0.0601195595046 -0.316543121807 -0.915802070515 -0.316544221906 -0.915801680283 -0.142282856669 0.0614411215144
1.552 -0.143000642993 0.0604089236107 -0.317674354947 -0.915344553177 -0.317675457624 -0.915344144943 -0.142515107456 0.0617316517789
1.553 -0.143234875377 0.0606990106019 -0.318804890302 -0.914885518011 -0.318805995406 -0.914885091896 -0.142747014865 0.062022902372
1.554 -0.143468766239 0.0609898200041 -0.319934725395 -0.914424966169 -0.319935832779 -0.914424522295 -0.142978576793 0.0623148728113
1.555 -0.143702313477 0.0612813513369 -0.321063857754 -0.91396289881 -0.321064967268 -0.913962437299 -0.143209791141 0.0626075626078
1.556 -0.143935514986 0.0615736041133 -0.322192284906 -0.913499317097 -0.322193396403 -0.913498838071 -0.143440655805 0.0629009712661
1.557 -0.144168368664 0.06186657784 -0.323320004382 -0.913034222199 -0.323321117715 -0.913033725782 -0.143671168685 0.0631950982846
1.558 -0.144400872408 0.0621602720171 -0.324447013715 -0.912567615292 -0.324448128736 -0.912567101607 -0.143901327682 0.0634899431551
1.559 -0.144633024115 0.0624546861383 -0.325573310438 -0.912099497555 -0.325574427003 -0.912098966727 -0.144131130693 0.0637855053629
1.56 -0.144864821683 0.0627498196912 -0.326698892087 -0.911629870174 -0.32670001005 -0.911629322329 -0.144360575621 0.0640817843869
1.561 -0.145096263011 0.0630456721564 -0.3278237562 -0.911158734342 -0.327824875418 -0.911158169606 -0.144589660365 0.0643787796997
1.562 -0.145327345997 0.0633422430085 -0.328947900318 -0.910686091255 -0.328949020647 -0.910685509754 -0.144818382827 0.0646764907673
1.563 -0.145558068542 0.0636395317154 -0.330071321982 -0.910211942117 -0.330072443279 -0.910211343977 -0.145046740909 0.0649749170493
1.564 -0.145788428544 0.0639375377387 -0.331194018737 -0.909736288134 -0.33119514086 -0.909735673485 -0.145274732513 0.0652740579989
1.565 -0.146018423905 0.0642362605335 -0.332315988129 -0.909259130522 -0.332317110936 -0.909258499492 -0.145502355541 0.0655739130627
1.566 -0.146248052525 0.0645356995484 -0.333437227705 -0.908780470499 -0.333438351056 -0.908779823217 -0.145729607897 0.0658744816809
1.567 -0.146477312305 0.0648358542255 -0.334557735016 -0.908300309291 -0.334558858771 -0.908299645886 -0.145956487484 0.0661757632874
1.568 -0.146706201148 0.0651367240006 -0.335677507614 -0.907818648129 -0.335678631635 -0.907817968731 -0.146182992207 0.0664777573095
1.569 -0.146934716956 0.0654383083028 -0.336796543053 -0.907335488247 -0.336797667201 -0.907334792988 -0.146409119972 0.0667804631679
1.57 -0.147162857633 0.0657406065549 -0.337914838891 -0.906850830889 -0.337915963028 -0.906850119899 -0.146634868683 0.0670838802771
1.571 -0.147390621081 0.0660436181733 -0.339032392685 -0.9063646773 -0.339033516675 -0.906363950712 -0.146860236247 0.0673880080449
1.572 -0.147618005207 0.0663473425677 -0.340149201997 -0.905877028734 -0.340150325703 -0.905876286681 -0.147085220572 0.0676928458727
1.573 -0.147845007915 0.0666517791414 -0.341265264389 -0.905387886449 -0.341266387677 -0.905387129064 -0.147309819563 0.0679983931555
1.574 -0.148071627111 0.0669569272913 -0.342380577427 -0.904897251709 -0.342381700162 -0.904896479125 -0.147534031131 0.0683046492817
1.575 -0.148297860701 0.0672627864077 -0.343495138677 -0.904405125783 -0.343496260725 -0.904404338134 -0.147757853183 0.0686116136332
1.576 -0.148523706593 0.0675693558746 -0.34460894571 -0.903911509946 -0.344610066939 -0.903910707367 -0.147981283631 0.0689192855856
1.577 -0.148749162695 0.0678766350693 -0.345721996097 -0.903416405478 -0.345723116375 -0.903415588105 -0.148204320384 0.0692276645078
1.578 -0.148974226916 0.0681846233626 -0.346834287412 -0.902919813666 -0.346835406607 -0.902918981633 -0.148426961353 0.0695367497624
1.579 -0.149198897165 0.068493320119 -0.347945817232 -0.902421735799 -0.347946935214 -0.902420889244 -0.148649204452 0.0698465407052
1.58 -0.149423171354 0.0688027246964 -0.349056583135 -0.901922173176 -0.349057699775 -0.901921312235 -0.148871047592 0.0701570366858
1.581 -0.149647047392 0.0691128364462 -0.350166582701 -0.901421127098 -0.350167697871 -0.901420251908 -0.149092488688 0.0704682370472
1.582 -0.149870523194 0.0694236547132 -0.351275813515 -0.900918598874 -0.351276927086 -0.900917709573 -0.149313525655 0.0707801411259
1.583 -0.150093596671 0.0697351788359 -0.352384273161 -0.900414589816 -0.352385385006 -0.900413686543 -0.149534156407 0.0710927482518
1.584 -0.150316265737 0.0700474081461 -0.353491959228 -0.899909101244 -0.353493069221 -0.899908184137 -0.149754378863 0.0714060577484
1.585 -0.150538528308 0.0703603419693 -0.354598869306 -0.899402134482 -0.354599977322 -0.899401203679 -0.149974190938 0.0717200689328
1.586 -0.1507603823 0.0706739796242 -0.355705000986 -0.898893690859 -0.355706106902 -0.898892746501 -0.150193590552 0.0720347811153
1.587 -0.150981825628 0.0709883204233 -0.356810351866 -0.898383771711 -0.356811455556 -0.898382813938 -0.150412575624 0.0723501935998
1.588 -0.151202856212 0.0713033636724 -0.357914919541 -0.897872378378 -0.357916020884 -0.89787140733 -0.150631144074 0.0726663056839
1.589 -0.151423471969 0.0716191086708 -0.359018701611 -0.897359512207 -0.359019800485 -0.897358528025 -0.150849293823 0.0729831166584
1.59 -0.15164367082 0.0719355547112 -0.36012169568 -0.896845174549 -0.360122791964 -0.896844177374 -0.151067022795 0.0733006258078
1.591 -0.151863450685 0.0722527010801 -0.361223899351 -0.89632936676 -0.361224992925 -0.896328356735 -0.151284328912 0.0736188324097
1.592 -0.152082809487 0.0725705470572 -0.362325310233 -0.895812090205 -0.362326400977 -0.895811067471 -0.1515012101 0.0739377357357
1.593 -0.152301745148 0.0728890919157 -0.363425925934 -0.89529334625 -0.363427013731 -0.895292310949 -0.151717664283 0.0742573350506
1.594 -0.152520255592 0.0732083349223 -0.364525744066 -0.894773136268 -0.364526828799 -0.894772088545 -0.151933689389 0.0745776296126
1.595 -0.152738338746 0.0735282753373 -0.365624762246 -0.894251461639 -0.365625843798 -0.894250401636 -0.152149283345 0.0748986186734
1.596 -0.152955992534 0.0738489124143 -0.36672297809 -0.893728323747 -0.366724056346 -0.893727251607 -0.152364444081 0.0752203014785
1.597 -0.153173214886 0.0741702454004 -0.367820389218 -0.89320372398 -0.367821464063 -0.893202639848 -0.152579169527 0.0755426772663
1.598 -0.153390003729 0.0744922735363 -0.368916993252 -0.892677663735 -0.368918064572 -0.892676567755 -0.152793457615 0.0758657452692
1.599 -0.153606356994 0.074814996056 -0.370012787817 -0.892150144411 -0.370013855501 -0.892149036728 -0.153007306276 0.0761895047127
1.6 -0.153822272612 0.0751384121872 -0.371107770542 -0.891621167415 -0.371108834477 -0.891620048174 -0.153220713446 0.0765139548161
1.601 -0.154037748516 0.0754625211507 -0.372201939056 -0.891090734157 -0.372202999131 -0.891089603503 -0.153433677059 0.0768390947918
1.602 -0.154252782638 0.0757873221612 -0.373295290993 -0.890558846054 -0.373296347098 -0.890557704133 -0.153646195052 0.0771649238458
1.603 -0.154467372916 0.0761128144266 -0.374387823987 -0.890025504528 -0.374388876015 -0.890024351486 -0.153858265362 0.0774914411778
1.604 -0.154681517284 0.0764389971482 -0.375479535678 -0.889490711006 -0.375480583519 -0.889489546989 -0.15406988593 0.0778186459807
1.605 -0.15489521368 0.076765869521 -0.376570423706 -0.88895446692 -0.376571467254 -0.888953292076 -0.154281054695 0.0781465374409
1.606 -0.155108460045 0.0770934307333 -0.377660485715 -0.88841677371 -0.377661524864 -0.888415588184 -0.154491769599 0.0784751147382
1.607 -0.155321254318 0.077421679967 -0.378749719351 -0.887877632817 -0.378750753996 -0.887876436757 -0.154702028586 0.0788043770461
1.608 -0.155533594441 0.0777506163972 -0.379838122264 -0.887337045691 -0.3798391523 -0.887335839245 -0.154911829601 0.0791343235314
1.609 -0.155745478358 0.0780802391928 -0.380925692105 -0.886795013786 -0.380926717429 -0.886793797101 -0.155121170589 0.0794649533543
1.61 -0.155956904013 0.078410547516 -0.382012426528 -0.886251538561 -0.382013447039 -0.886250311786 -0.155330049498 0.0797962656685
1.611 -0.156167869354 0.0787415405223 -0.383098323193 -0.885706621481 -0.383099338789 -0.885705384763 -0.155538464278 0.0801282596213
1.612 -0.156378372327 0.0790732173609 -0.384183379757 -0.885160264016 -0.384184390338 -0.885159017504 -0.155746412879 0.0804609343533
1.613 -0.156588410882 0.0794055771745 -0.385267593886 -0.88461246764 -0.385268599353 -0.884611211483 -0.155953893254 0.0807942889986
1.614 -0.15679798297 0.079738619099 -0.386350963244 -0.884063233836 -0.386351963499 -0.884061968182 -0.156160903355 0.0811283226847
1.615 -0.157007086543 0.0800723422639 -0.3874334855 -0.883512564088 -0.387434480446 -0.883511289087 -0.156367441139 0.0814630345327
1.616 -0.157215719556 0.0804067457923 -0.388515158326 -0.882960459887 -0.388516147866 -0.882959175689 -0.156573504561 0.0817984236571
1.617 -0.157423879964 0.0807418288006 -0.389595979397 -0.882406922731 -0.389596963436 -0.882405629484 -0.156779091582 0.0821344891658
1.618 -0.157631565724 0.0810775903985 -0.39067594639 -0.881851954121 -0.390676924834 -0.881850651976 -0.156984200161 0.0824712301601
1.619 -0.157838774795 0.0814140296896 -0.391755056984 -0.881295555564 -0.391756029741 -0.88129424467 -0.157188828259 0.0828086457351
1.62 -0.158045505139 0.0817511457706 -0.392833308864 -0.880737728573 -0.392834275841 -0.88073640908 -0.157392973841 0.0831467349788
1.621 -0.158251754716 0.0820889377317 -0.393910699716 -0.880178474664 -0.393911660821 -0.880177146722 -0.157596634871 0.0834854969732
1.622 -0.158457521492 0.0824274046568 -0.394987227228 -0.879617795361 -0.394988182372 -0.879616459121 -0.157799809316 0.0838249307935
1.623 -0.158662803432 0.082766545623 -0.396062889093 -0.879055692191 -0.396063838187 -0.879054347804 -0.158002495146 0.0841650355083
1.624 -0.158867598503 0.083106359701 -0.397137683007 -0.878492166689 -0.397138625962 -0.878490814305 -0.15820469033 0.0845058101799
1.625 -0.159071904675 0.083446845955 -0.398211606666 -0.877927220391 -0.398212543396 -0.877925860162 -0.158406392842 0.0848472538637
1.626 -0.159275719919 0.0837880034425 -0.399284657772 -0.877360854843 -0.399285588191 -0.877359486919 -0.158607600654 0.085189365609
1.627 -0.159479042208 0.0841298312146 -0.40035683403 -0.876793071594 -0.400357758053 -0.876791696125 -0.158808311744 0.0855321444581
1.628 -0.159681869517 0.0844723283158 -0.401428133147 -0.876223872196 -0.40142905069 -0.876222489334 -0.159008524088 0.0858755894473
1.629 -0.159884199822 0.0848154937841 -0.402498552833 -0.875653258209 -0.402499463813 -0.875651868106 -0.159208235667 0.0862196996058
1.63 -0.160086031102 0.0851593266511 -0.403568090801 -0.875081231199 -0.403568995137 -0.875079834005 -0.159407444461 0.0865644739566
1.631 -0.160287361337 0.0855038259416 -0.404636744768 -0.874507792734 -0.404637642379 -0.874506388602 -0.159606148456 0.0869099115162
1.632 -0.160488188511 0.0858489906742 -0.405704512453 -0.87393294439 -0.405705403259 -0.87393153347 -0.159804345635 0.0872560112944
1.633 -0.160688510606 0.0861948198605 -0.40677139158 -0.873356687747 -0.406772275503 -0.873355270191 -0.160002033987 0.0876027722945
1.634 -0.160888325611 0.0865413125062 -0.407837379874 -0.872779024389 -0.407838256836 -0.872777600349 -0.160199211501 0.0879501935134
1.635 -0.161087631512 0.0868884676099 -0.408902475064 -0.872199955908 -0.40890334499 -0.872198525534 -0.160395876168 0.0882982739413
1.636 -0.161286426301 0.087236284164 -0.409966674883 -0.871619483897 -0.409967537696 -0.871618047343 -0.160592025982 0.088647012562
1.637 -0.16148470797 0.0875847611543 -0.411029977066 -0.87103760996 -0.411030832692 -0.871036167376 -0.160787658939 0.0889964083527
1.638 -0.161682474514 0.0879338975601 -0.412092379352 -0.8704543357 -0.412093227718 -0.870452887238 -0.160982773036 0.0893464602841
1.639 -0.161879723928 0.0882836923542 -0.413153879482 -0.869869662728 -0.413154720516 -0.869868208541 -0.161177366273 0.0896971673205
1.64 -0.162076454213 0.0886341445027 -0.414214475202 -0.869283592662 -0.414215308833 -0.8692821329 -0.161371436652 0.0900485284194
1.641 -0.162272663369 0.0889852529656 -0.41527416426 -0.868696127121 -0.415274990418 -0.868694661936 -0.161564982178 0.090400542532
1.642 -0.162468349399 0.0893370166959 -0.416332944408 -0.868107267732 -0.416333763023 -0.868105797277 -0.161758000855 0.090753208603
1.643 -0.162663510308 0.0896894346404 -0.417390813401 -0.867517016127 -0.417391624406 -0.867515540552 -0.161950490693 0.0911065255705
1.644 -0.162858144104 0.0900425057394 -0.418447768996 -0.866925373941 -0.418448572325 -0.866923893398 -0.162142449702 0.0914604923661
1.645 -0.163052248797 0.0903962289265 -0.419503808956 -0.866332342816 -0.419504604543 -0.866330857457 -0.162333875896 0.0918151079149
1.646 -0.163245822398 0.090750603129 -0.420558931046 -0.865737924398 -0.420559718826 -0.865736434374 -0.162524767289 0.0921703711355
1.647 -0.163438862922 0.0911056272675 -0.421613133033 -0.865142120339 -0.421613912943 -0.865140625802 -0.1627151219 0.09252628094
1.648 -0.163631368386 0.0914613002563 -0.42266641269 -0.864544932295 -0.422667184667 -0.864543433396 -0.162904937747 0.0928828362339
1.649 -0.163823336808 0.0918176210031 -0.423718767791 -0.863946361928 -0.423719531774 -0.863944858819 -0.163094212853 0.0932400359165
1.65 -0.16401476621 0.0921745884092 -0.424770196114 -0.863346410905 -0.424770952044 -0.863344903736 -0.163282945243 0.0935978788802
1.651 -0.164205654615 0.0925322013693 -0.425820695442 -0.862745080897 -0.42582144326 -0.86274356982 -0.163471132943 0.0939563640111
1.652 -0.164396000049 0.0928904587716 -0.42687026356 -0.862142373581 -0.426871003207 -0.862140858746 -0.163658773982 0.094315490189
1.653 -0.164585800541 0.093249359498 -0.427918898257 -0.861538290638 -0.427919629676 -0.861536772197 -0.163845866394 0.0946752562869
1.654 -0.164775054122 0.0936089024237 -0.428966597324 -0.860932833755 -0.42896732046 -0.860931311858 -0.16403240821 0.0950356611714
1.655 -0.164963758825 0.0939690864176 -0.430013358557 -0.860326004623 -0.430014073355 -0.860324479422 -0.164218397469 0.0953967037027
1.656 -0.165151912686 0.094329910342 -0.431059179755 -0.85971780494 -0.431059886162 -0.859716276584 -0.16440383221 0.0957583827346
1.657 -0.165339513742 0.0946913730528 -0.432104058721 -0.859108236406 -0.432104756684 -0.859106705046 -0.164588710474 0.0961206971141
1.658 -0.165526560037 0.0950534733994 -0.433147993261 -0.858497300728 -0.433148682729 -0.858495766514 -0.164773030305 0.0964836456821
1.659 -0.165713049611 0.0954162102248 -0.434190981184 -0.857884999618 -0.434191662108 -0.8578834627 -0.16495678975 0.0968472272729
1.66 -0.165898980512 0.0957795823654 -0.435233020304 -0.857271334791 -0.435233692634 -0.85726979532 -0.165139986859 0.0972114407141
1.661 -0.166084350789 0.0961435886514 -0.436274108437 -0.85665630797 -0.436274772126 -0.856654766094 -0.165322619683 0.0975762848272
1.662 -0.166269158492 0.0965082279063 -0.437314243404 -0.85603992088 -0.437314898404 -0.856038376749 -0.165504686278 0.0979417584271
1.663 -0.166453401676 0.0968734989473 -0.438353423029 -0.855422175252 -0.438354069295 -0.855420629015 -0.165686184701 0.0983078603221
1.664 -0.166637078396 0.097239400585 -0.439391645138 -0.854803072823 -0.439392282626 -0.854801524629 -0.165867113011 0.0986745893143
1.665 -0.166820186713 0.0976059316237 -0.440428907564 -0.854182615333 -0.440429536229 -0.854181065332 -0.166047469271 0.0990419441992
1.666 -0.167002724688 0.0979730908613 -0.44146520814 -0.853560804527 -0.441465827942 -0.853559252867 -0.166227251547 0.0994099237659
1.667 -0.167184690387 0.0983408770892 -0.442500544706 -0.852937642158 -0.442501155602 -0.852936088987 -0.166406457907 0.0997785267972
1.668 -0.167366081875 0.0987092890923 -0.443534915103 -0.852313129979 -0.443535517054 -0.852311575446 -0.166585086423 0.100147752069
1.669 -0.167546897225 0.0990783256492 -0.444568317177 -0.851687269752 -0.444568910144 -0.851685714004 -0.166763135166 0.100517598351
1.67 -0.167727134509 0.099447985532 -0.445600748777 -0.851060063241 -0.445601332722 -0.851058506426 -0.166940602216 0.100888064408
1.671 -0.167906791802 0.0998182675064 -0.446632207756 -0.850431512217 -0.446632782643 -0.850429954482 -0.16711748565 0.101259148995
1.672 -0.168085867185 0.100189170332 -0.447662691972 -0.849801618454 -0.447663257766 -0.849800059947 -0.167293783551 0.101630850863
1.673 -0.168264358738 0.100560692761 -0.448692199285 -0.849170383732 -0.44869275595 -0.849168824599 -0.167469494005 0.102003168757
1.674 -0.168442264546 0.100932833541 -0.449720727559 -0.848537809836 -0.449721275063 -0.848536250224 -0.167644615099 0.102376101415
1.675 -0.168619582696 0.101305591411 -0.450748274662 -0.847903898554 -0.450748812973 -0.847902338609 -0.167819144925 0.102749647567
1.676 -0.16879631128 0.101678965105 -0.451774838466 -0.847268651681 -0.451775367553 -0.847267091548 -0.167993081577 0.103123805938
1.677 -0.16897244839 0.102052953351 -0.452800416846 -0.846632071015 -0.45280093668 -0.846630510841 -0.168166423151 0.103498575248
1.678 -0.169147992123 0.102427554869 -0.453825007683 -0.84599415836 -0.453825518234 -0.845992598289 -0.168339167749 0.103873954207
1.679 -0.169322940579 0.102802768375 -0.454848608859 -0.845354915524 -0.4548491101 -0.845353355702 -0.168511313472 0.104249941523
1.68 -0.169497291859 0.103178592576 -0.455871218261 -0.844714344321 -0.455871710167 -0.844712784891 -0.168682858427 0.104626535894
1.681 -0.16967104407 0.103555026174 -0.456892833781 -0.844072446567 -0.456893316325 -0.844070887674 -0.168853800724 0.105003736014
1.682 -0.169844195321 0.103932067864 -0.457913453313 -0.843429224085 -0.457913926472 -0.843427665873 -0.169024138474 0.105381540568
1.683 -0.170016743723 0.104309716337 -0.458933074756 -0.842784678703 -0.458933538507 -0.842783121315 -0.169193869794 0.105759948238
1.684 -0.17018868739 0.104687970275 -0.459951696012 -0.842138812252 -0.459952150333 -0.842137255831 -0.169362992802 0.106138957698
1.685 -0.170360024442 0.105066828353 -0.460969314988 -0.841491626569 -0.460969759859 -0.841490071258 -0.169531505619 0.106518567614
1.686 -0.170530752999 0.105446289243 -0.461985929594 -0.840843123495 -0.461986364995 -0.840841569436 -0.169699406371 0.106898776649
1.687 -0.170700871187 0.105826351608 -0.463001537745 -0.840193304875 -0.463001963657 -0.840191752211 -0.169866693185 0.107279583457
1.688 -0.170870377132 0.106207014106 -0.464016137359 -0.839542172562 -0.464016553765 -0.839540621433 -0.170033364195 0.107660986687
1.689 -0.171039268965 0.106588275388 -0.465029726357 -0.838889728408 -0.465030133242 -0.838888178956 -0.170199417533 0.108042984982
1.69 -0.171207544822 0.106970134098 -0.466042302667 -0.838235974276 -0.466042700016 -0.838234426641 -0.170364851339 0.108425576976
1.691 -0.17137520284 0.107352588875 -0.467053864218 -0.837580912028 -0.467054252016 -0.83757936635 -0.170529663753 0.1088087613
1.692 -0.171542241158 0.107735638353 -0.468064408944 -0.836924543534 -0.46806478718 -0.836922999953 -0.170693852921 0.109192536577
1.693 -0.171708657923 0.108119281155 -0.469073934784 -0.836266870667 -0.469074303446 -0.836265329322 -0.170857416991 0.109576901425
1.694 -0.171874451281 0.108503515903 -0.47008243968 -0.835607895306 -0.470082798758 -0.835606356336 -0.171020354113 0.109961854454
1.695 -0.172039619384 0.10888834121 -0.471089921578 -0.834947619333 -0.471090271062 -0.834946082876 -0.171182662443 0.110347394268
1.696 -0.172204160386 0.109273755683 -0.472096378429 -0.834286044637 -0.472096718311 -0.83428451083 -0.17134434014 0.110733519466
1.697 -0.172368072445 0.109659757922 -0.473101808186 -0.833623173108 -0.47310213846 -0.83362164209 -0.171505385364 0.11112022864
1.698 -0.172531353722 0.110046346523 -0.474106208809 -0.832959006643 -0.474106529468 -0.83295747855 -0.171665796282 0.111507520376
1.699 -0.172694002382 0.110433520074 -0.475109578259 -0.832293547144 -0.4751098893 -0.832292022112 -0.171825571062 0.111895393252
1.7 -0.172856016593 0.110821277156 -0.476111914504 -0.831626796515 -0.476112215922 -0.83162527468 -0.171984707877 0.112283845843
1.701 -0.173017394529 0.111209616347 -0.477113215514 -0.830958756668 -0.477113507308 -0.830957238164 -0.172143204902 0.112672876715
1.702 -0.173178134363 0.111598536216 -0.478113479264 -0.830289429515 -0.478113761432 -0.830287914478 -0.172301060316 0.113062484428
1.703 -0.173338234275 0.111988035325 -0.479112703734 -0.829618816977 -0.479112976276 -0.829617305541 -0.172458272304 0.113452667538
1.704 -0.173497692449 0.112378112233 -0.480110886905 -0.828946920977 -0.480111149823 -0.828945413275 -0.172614839051 0.113843424593
1.705 -0.173656507069 0.112768765491 -0.481108026767 -0.828273743442 -0.481108280062 -0.828272239608 -0.172770758749 0.114234754134
1.706 -0.173814676327 0.113159993643 -0.48210412131 -0.827599286305 -0.482104364986 -0.827597786471 -0.17292602959 0.114626654698
1.707 -0.173972198415 0.113551795229 -0.48309916853 -0.826923551504 -0.483099402591 -0.826922055801 -0.173080649773 0.115019124815
1.708 -0.174129071532 0.11394416878 -0.484093166427 -0.826246540979 -0.484093390879 -0.826245049539 -0.1732346175 0.115412163007
1.709 -0.174285293879 0.114337112824 -0.485086113006 -0.825568256676 -0.485086327856 -0.82556676963 -0.173387930974 0.115805767793
1.71 -0.174440863659 0.114730625879 -0.486078006274 -0.824888700545 -0.48607821153 -0.824887218022 -0.173540588407 0.116199937683
1.711 -0.174595779083 0.115124706462 -0.487068844245 -0.82420787454 -0.487069039916 -0.824206396671 -0.173692588009 0.116594671182
1.712 -0.174750038361 0.115519353078 -0.488058624936 -0.823525780621 -0.488058811031 -0.823524307534 -0.173843927998 0.11698996679
1.713 -0.174903639712 0.115914564231 -0.489047346367 -0.822842420751 -0.489047522899 -0.822840952574 -0.173994606594 0.117385822998
1.714 -0.175056581354 0.116310338415 -0.490035006565 -0.822157796897 -0.490035173545 -0.822156333757 -0.174144622022 0.117782238294
1.715 -0.175208861512 0.116706674121 -0.491021603559 -0.821471911032 -0.491021761001 -0.821470453056 -0.17429397251 0.118179211158
1.716 -0.175360478414 0.117103569832 -0.492007135383 -0.820784765131 -0.492007283302 -0.820783312446 -0.174442656289 0.118576740065
1.717 -0.175511430292 0.117501024025 -0.492991600076 -0.820096361175 -0.492991738488 -0.820094913907 -0.174590671596 0.118974823482
1.718 -0.17566171538 0.117899035171 -0.493974995681 -0.819406701149 -0.493975124602 -0.819405259422 -0.174738016671 0.119373459872
1.719 -0.17581133192 0.118297601736 -0.494957320245 -0.818715787043 -0.494957439694 -0.818714350981 -0.174884689758 0.119772647691
1.72 -0.175960278154 0.118696722179 -0.495938571819 -0.818023620849 -0.495938681815 -0.818022190577 -0.175030689105 0.120172385389
1.721 -0.176108552331 0.119096394952 -0.49691874846 -0.817330204566 -0.496918849022 -0.817328780205 -0.175176012963 0.120572671409
1.722 -0.176256152702 0.119496618503 -0.497897848227 -0.816635540196 -0.497897939378 -0.816634121869 -0.175320659589 0.12097350419
1.723 -0.176403077523 0.119897391273 -0.498875869186 -0.815939629745 -0.498875950948 -0.815938217573 -0.175464627244 0.121374882164
1.724 -0.176549325054 0.120298711697 -0.499852809405 -0.815242475223 -0.499852881802 -0.815241069328 -0.17560791419 0.121776803755
1.725 -0.176694893559 0.120700578203 -0.500828666959 -0.814544078645 -0.500828730016 -0.814542679146 -0.175750518698 0.122179267385
1.726 -0.176839781307 0.121102989214 -0.501803439925 -0.813844442031 -0.501803493667 -0.813843049047 -0.175892439038 0.122582271466
1.727 -0.176983986568 0.121505943148 -0.502777126386 -0.813143567403 -0.50277717084 -0.813142181053 -0.176033673489 0.122985814407
1.728 -0.177127507621 0.121909438415 -0.503749724429 -0.812441456789 -0.503749759623 -0.81244007719 -0.17617422033 0.123389894609
1.729 -0.177270342745 0.12231347342 -0.504721232145 -0.81173811222 -0.504721258108 -0.811736739489 -0.176314077847 0.123794510467
1.73 -0.177412490226 0.122718046563 -0.50569164763 -0.811033535732 -0.505691664393 -0.811032169986 -0.17645324433 0.124199660372
1.731 -0.177553948352 0.123123156235 -0.506660968984 -0.810327729364 -0.506660976579 -0.810326370719 -0.176591718071 0.124605342707
1.732 -0.177694715418 0.123528800825 -0.507629194313 -0.809620695162 -0.507629192771 -0.809619343731 -0.176729497369 0.125011555851
1.733 -0.17783478972 0.123934978713 -0.508596321726 -0.808912435172 -0.508596311081 -0.80891109107 -0.176866580527 0.125418298174
1.734 -0.177974169562 0.124341688274 -0.509562349337 -0.808202951448 -0.509562329624 -0.808201614787 -0.17700296585 0.125825568043
1.735 -0.178112853248 0.124748927878 -0.510527275265 -0.807492246045 -0.510527246519 -0.807490916937 -0.17713865165 0.126233363819
1.736 -0.178250839091 0.125156695888 -0.511491097632 -0.806780321023 -0.511491059891 -0.806778999581 -0.177273636242 0.126641683854
1.737 -0.178388125405 0.125564990661 -0.512453814566 -0.806067178448 -0.512453767868 -0.806065864781 -0.177407917946 0.127050526498
1.738 -0.17852471051 0.12597381055 -0.5134154242 -0.805352820388 -0.513415368583 -0.805351514606 -0.177541495086 0.127459890092
1.739 -0.178660592729 0.126383153899 -0.514375924671 -0.804637248915 -0.514375860175 -0.804635951127 -0.17767436599 0.127869772973
1.74 -0.178795770392 0.126793019049 -0.51533531412 -0.803920466106 -0.515335240787 -0.803919176421 -0.177806528993 0.128280173471
1.741 -0.178930241831 0.127203404334 -0.516293590693 -0.803202474042 -0.516293508565 -0.803201192566 -0.17793798243 0.128691089912
1.742 -0.179064005384 0.127614308081 -0.517250752541 -0.802483274806 -0.517250661661 -0.802482001646 -0.178068724645 0.129102520614
1.743 -0.179197059392 0.128025728614 -0.518206797819 -0.801762870489 -0.518206698232 -0.80176160575 -0.178198753984 0.12951446389
1.744 -0.179329402203 0.128437664248 -0.519161724688 -0.801041263182 -0.519161616439 -0.801040006968 -0.178328068799 0.129926918047
1.745 -0.179461032166 0.128850113295 -0.520115531312 -0.800318454982 -0.520115414448 -0.800317207397 -0.178456667444 0.130339881387
1.746 -0.179591947639 0.129263074059 -0.52106821586 -0.79959444799 -0.521068090428 -0.799593209137 -0.178584548282 0.130753352206
1.747 -0.179722146981 0.129676544839 -0.522019776507 -0.79886924431 -0.522019642556 -0.79886801429 -0.178711709677 0.131167328792
1.748 -0.179851628558 0.13009052393 -0.522970211432 -0.79814284605 -0.522970069012 -0.798141624965 -0.178838149998 0.131581809431
1.749 -0.179980390738 0.130505009618 -0.523919518817 -0.797415255322 -0.523919367979 -0.797414043273 -0.178963867621 0.1319967924
1.75 -0.180108431897 0.130920000185 -0.524867696852 -0.796686474244 -0.524867537647 -0.796685271328 -0.179088860924 0.132412275972
1.751 -0.180235750413 0.131335493908 -0.525814743729 -0.795956504935 -0.52581457621 -0.795955311251 -0.179213128292 0.132828258414
1.752 -0.18036234467 0.131751489057 -0.526760657646 -0.795225349519 -0.526760481867 -0.795224165164 -0.179336668113 0.133244737986
1.753 -0.180488213057 0.132167983897 -0.527705436805 -0.794493010124 -0.527705252821 -0.794491835194 -0.17945947878 0.133661712945
1.754 -0.180613353967 0.132584976687 -0.528649079414 -0.793759488881 -0.528648887281 -0.793758323471 -0.179581558692 0.13407918154
1.755 -0.180737765799 0.13300246568 -0.529591583684 -0.793024787926 -0.52959138346 -0.793023632132 -0.179702906253 0.134497142014
1.756 -0.180861446954 0.133420449125 -0.530532947833 -0.792288909399 -0.530532739575 -0.792287763312 -0.179823519869 0.134915592607
1.757 -0.180984395842 0.133838925262 -0.531473170082 -0.791551855442 -0.53147295385 -0.791550719156 -0.179943397954 0.135334531551
1.758 -0.181106610875 0.134257892329 -0.532412248658 -0.790813628203 -0.532412024511 -0.790812501808 -0.180062538927 0.135753957072
1.759 -0.18122809047 0.134677348557 -0.533350181791 -0.790074229832 -0.533349949792 -0.790073113419 -0.180180941208 0.136173867393
1.76 -0.18134883305 0.13509729217 -0.534286967719 -0.789333662484 -0.534286727928 -0.789332556142 -0.180298603227 0.136594260728
1.761 -0.181468837042 0.135517721389 -0.535222604681 -0.788591928316 -0.535222357163 -0.788590832134 -0.180415523415 0.137015135289
1.762 -0.181588100879 0.135938634427 -0.536157090924 -0.787849029491 -0.536156835743 -0.787847943556 -0.18053170021 0.13743648928
1.763 -0.181706622999 0.136360029494 -0.537090424699 -0.787104968175 -0.537090161919 -0.787103892573 -0.180647132055 0.1378583209
1.764 -0.181824401844 0.136781904791 -0.53802260426 -0.786359746537 -0.538022333949 -0.786358681353 -0.180761817398 0.138280628342
1.765 -0.181941435861 0.137204258516 -0.538953627869 -0.785613366749 -0.538953350093 -0.785612312068 -0.180875754691 0.138703409794
1.766 -0.182057723503 0.137627088861 -0.539883493791 -0.78486583099 -0.539883208618 -0.784864786894 -0.180988942392 0.139126663438
1.767 -0.182173263228 0.138050394013 -0.540812200295 -0.784117141438 -0.540811907796 -0.784116108011 -0.181101378963 0.139550387453
1.768 -0.182288053498 0.138474172153 -0.541739745658 -0.783367300279 -0.541739445901 -0.7833662776 -0.181213062874 0.139974580007
1.769 -0.182402092781 0.138898421455 -0.542666128159 -0.7826163097 -0.542665821217 -0.78261529785 -0.181323992597 0.140399239269
1.77 -0.18251537955 0.13932314009 -0.543591346083 -0.781864171892 -0.543591032027 -0.781863170949 -0.18143416661 0.140824363398
1.771 -0.182627912284 0.139748326222 -0.54451539772 -0.781110889051 -0.544515076625 -0.781109899093 -0.181543583398 0.141249950548
1.772 -0.182739689466 0.140173978011 -0.545438281365 -0.780356463374 -0.545437953304 -0.780355484478 -0.181652241448 0.141675998871
1.773 -0.182850709585 0.14060009361 -0.546359995319 -0.779600897065 -0.546359660367 -0.779599929306 -0.181760139255 0.142102506508
1.774 -0.182960971134 0.141026671166 -0.547280537886 -0.778844192328 -0.547280196119 -0.77884323578 -0.181867275319 0.1425294716
1.775 -0.183070472612 0.141453708824 -0.548199907375 -0.778086351373 -0.548199558871 -0.778085406111 -0.181973648143 0.14295689228
1.776 -0.183179212524 0.14188120472 -0.549118102102 -0.777327376413 -0.549117746939 -0.777326442508 -0.182079256237 0.143384766675
1.777 -0.18328718938 0.142309156987 -0.550035120387 -0.776567269663 -0.550034758644 -0.776566347187 -0.182184098118 0.143813092908
1.778 -0.183394401695 0.142737563752 -0.550950960555 -0.775806033345 -0.550950592311 -0.775805122367 -0.182288172305 0.144241869096
1.779 -0.183500847989 0.143166423135 -0.551865620935 -0.775043669681 -0.551865246272 -0.77504277027 -0.182391477324 0.144671093351
1.78 -0.183606526788 0.143595733253 -0.552779099862 -0.774280180898 -0.552778718862 -0.774279293121 -0.182494011708 0.145100763779
1.781 -0.183711436624 0.144025492217 -0.553691395678 -0.773515569227 -0.553691008422 -0.77351469315 -0.182595773992 0.145530878483
1.782 -0.183815576031 0.144455698132 -0.554602506726 -0.7727498369 -0.554602113299 -0.77274897259 -0.182696762718 0.145961435556
1.783 -0.183918943554 0.144886349099 -0.555512431356 -0.771982986156 -0.555512031844 -0.771982133676 -0.182796976436 0.146392433091
1.784 -0.184021537739 0.145317443213 -0.556421167925 -0.771215019234 -0.556420762412 -0.771214178647 -0.182896413697 0.146823869173
1.785 -0.18412335714 0.145748978563 -0.557328714792 -0.770445938379 -0.557328303366 -0.770445109747 -0.18299507306 0.147255741881
1.786 -0.184224400314 0.146180953234 -0.558235070324 -0.769675745838 -0.558234653071 -0.769674929222 -0.18309295309 0.147688049292
1.787 -0.184324665826 0.146613365306 -0.559140232889 -0.768904443862 -0.559139809898 -0.76890363932 -0.183190052357 0.148120789474
1.788 -0.184424152246 0.147046212853 -0.560044200865 -0.768132034705 -0.560043772225 -0.768131242296 -0.183286369435 0.148553960491
1.789 -0.184522858148 0.147479493943 -0.560946972631 -0.767358520625 -0.560946538433 -0.767357740406 -0.183381902906 0.148987560405
1.79 -0.184620782114 0.147913206641 -0.561848546575 -0.766583903882 -0.561848106909 -0.766583135908 -0.183476651357 0.149421587268
1.791 -0.184717922729 0.148347349006 -0.562748921086 -0.76580818674 -0.562748476045 -0.765807431066 -0.18357061338 0.14985603913
1.792 -0.184814278587 0.148781919091 -0.563648094561 -0.765031371467 -0.563647644238 -0.765030628146 -0.183663787572 0.150290914035
1.793 -0.184909848284 0.149216914945 -0.564546065402 -0.764253460334 -0.56454560989 -0.764252729418 -0.183756172537 0.150726210021
1.794 -0.185004630424 0.149652334611 -0.565442832014 -0.763474455614 -0.565442371409 -0.763473737154 -0.183847766885 0.151161925123
1.795 -0.185098623615 0.150088176128 -0.566338392811 -0.762694359585 -0.566337927207 -0.76269365363 -0.18393856923 0.151598057369
1.796 -0.185191826474 0.15052443753 -0.567232746208 -0.761913174527 -0.567232275702 -0.761912481125 -0.184028578194 0.152034604783
1.797 -0.18528423762 0.150961116843 -0.568125890628 -0.761130902725 -0.568125415318 -0.761130221923 -0.184117792403 0.152471565383
1.798 -0.185375855679 0.151398212093 -0.569017824497 -0.760347546464 -0.569017344481 -0.760346878308 -0.184206210489 0.152908937184
1.799 -0.185466679284 0.151835721297 -0.56990854625 -0.759563108035 -0.569908061627 -0.759562452569 -0.184293831091 0.153346718193
1.8 -0.185556707073 0.152273642469 -0.570798054323 -0.758777589732 -0.570797565192 -0.758776946999 -0.184380652852 0.153784906415
1.801 -0.185645937689 0.152711973618 -0.571686347159 -0.757990993851 -0.571685853622 -0.757990363893 -0.184466674423 0.154223499847
1.802 -0.185734369783 0.153150712746 -0.572573423207 -0.757203322691 -0.572572925365 -0.757202705549 -0.184551894459 0.154662496485
1.803 -0.185822002008 0.153589857852 -0.57345928092 -0.756414578556 -0.573458778876 -0.756413974268 -0.184636311622 0.155101894317
1.804 -0.185908833028 0.15402940693 -0.574343918757 -0.75562476375 -0.574343412614 -0.755624172355 -0.18471992458 0.155541691326
1.805 -0.185994861509 0.15446935797 -0.575227335182 -0.754833880584 -0.575226825043 -0.754833302118 -0.184802732006 0.155981885492
1.806 -0.186080086124 0.154909708954 -0.576109528664 -0.75404193137 -0.576109014635 -0.754041365867 -0.18488473258 0.156422474789
1.807 -0.186164505553 0.155350457862 -0.576990497678 -0.753248918422 -0.576989979865 -0.753248365917 -0.184965924986 0.156863457186
1.808 -0.18624811848 0.155791602669 -0.577870240703 -0.752454844058 -0.577869719213 -0.752454304584 -0.185046307918 0.157304830648
1.809 -0.186330923598 0.156233141344 -0.578748756226 -0.751659710601 -0.578748231164 -0.751659184189 -0.185125880072 0.157746593134
1.81 -0.186412919602 0.156675071851 -0.579626042735 -0.750863520374 -0.579625514212 -0.750863007053 -0.185204640151 0.1581887426
1.811 -0.186494105197 0.157117392151 -0.580502098728 -0.750066275705 -0.580501566851 -0.750065775504 -0.185282586866 0.158631276995
1.812 -0.186574479092 0.157560100199 -0.581376922705 -0.749267978924 -0.581376387585 -0.749267491869 -0.185359718933 0.159074194265
1.813 -0.186654040002 0.158003193945 -0.582250513172 -0.748468632364 -0.58224997492 -0.748468158482 -0.185436035073 0.159517492351
1.814 -0.186732786648 0.158446671335 -0.583122868642 -0.747668238362 -0.583122327368 -0.747667777677 -0.185511534014 0.159961169188
1.815 -0.186810717759 0.15889053031 -0.583993987632 -0.746866799257 -0.583993443449 -0.746866351792 -0.18558621449 0.160405222708
1.816 -0.186887832067 0.159334768807 -0.584863868664 -0.746064317391 -0.584863321684 -0.746063883167 -0.185660075243 0.160849650838
1.817 -0.186964128314 0.159779384757 -0.585732510265 -0.74526079511 -0.585731960603 -0.745260374147 -0.185733115018 0.161294451498
1.818 -0.187039605244 0.160224376088 -0.58659991097 -0.74445623476 -0.58659935874 -0.744455827078 -0.185805332568 0.161739622607
1.819 -0.187114261611 0.160669740722 -0.587466069317 -0.743650638694 -0.587465514633 -0.743650244309 -0.185876726652 0.162185162078
1.82 -0.187188096173 0.161115476577 -0.58833098385 -0.742844009265 -0.588330426829 -0.742843628193 -0.185947296036 0.162631067818
1.821 -0.187261107694 0.161561581566 -0.589194653117 -0.742036348829 -0.589194093876 -0.742035981085 -0.18601703949 0.16307733773
1.822 -0.187333294947 0.162008053599 -0.590057075675 -0.741227659746 -0.590056514331 -0.741227305344 -0.186085955794 0.163523969715
1.823 -0.187404656707 0.16245489058 -0.590918250083 -0.740417944379 -0.590917686755 -0.740417603329 -0.18615404373 0.163970961665
1.824 -0.187475191759 0.162902090408 -0.591778174907 -0.739607205092 -0.591777609713 -0.739606877405 -0.18622130209 0.164418311472
1.825 -0.187544898893 0.163349650978 -0.592636848718 -0.738795444254 -0.592636281777 -0.738795129939 -0.186287729671 0.164866017021
1.826 -0.187613776906 0.163797570183 -0.593494270093 -0.737982664235 -0.593493701526 -0.737982363298 -0.186353325275 0.165314076192
1.827 -0.187681824598 0.164245845907 -0.594350437612 -0.737168867408 -0.594349867541 -0.737168579856 -0.186418087713 0.165762486862
1.828 -0.187749040781 0.164694476034 -0.595205349865 -0.736354056151 -0.59520477841 -0.736353781988 -0.1864820158 0.166211246903
1.829 -0.18781542427 0.16514345844 -0.596059005443 -0.735538232841 -0.596058432727 -0.73553797207 -0.186545108358 0.166660354184
1.83 -0.187880973885 0.165592791 -0.596911402945 -0.734721399861 -0.596910829092 -0.734721152483 -0.186607364218 0.167109806566
1.831 -0.187945688456 0.166042471581 -0.597762540974 -0.733903559594 -0.597761966107 -0.73390332561 -0.186668782214 0.16755960191
1.832 -0.188009566818 0.166492498048 -0.59861241814 -0.733084714429 -0.598611842384 -0.733084493837 -0.186729361188 0.168009738069
1.833 -0.188072607812 0.166942868262 -0.599461033058 -0.732264866754 -0.599460456538 -0.732264659551 -0.186789099989 0.168460212895
1.834 -0.188134810285 0.167393580079 -0.600308384348 -0.731444018962 -0.60030780719 -0.731443825144 -0.186847997471 0.168911024232
1.835 -0.188196173092 0.167844631349 -0.601154470635 -0.730622173449 -0.601153892965 -0.730621993009 -0.186906052496 0.169362169924
1.836 -0.188256695094 0.168296019921 -0.60199929055 -0.729799332611 -0.601998712496 -0.729799165542 -0.186963263933 0.169813647806
1.837 -0.188316375158 0.168747743638 -0.602842842731 -0.728975498849 -0.602842264421 -0.728975345142 -0.187019630656 0.170265455713
1.838 -0.188375212158 0.169199800339 -0.60368512582 -0.728150674566 -0.603684547381 -0.728150534211 -0.187075151546 0.170717591474
1.839 -0.188433204976 0.169652187858 -0.604526138463 -0.727324862168 -0.604525560026 -0.727324735152 -0.187129825492 0.171170052913
1.84 -0.188490352497 0.170104904026 -0.605365879316 -0.726498064062 -0.605365301009 -0.726497950371 -0.187183651387 0.171622837851
1.841 -0.188546653616 0.17055794667 -0.606204347035 -0.725670282658 -0.60620376899 -0.725670182278 -0.187236628133 0.172075944104
1.842 -0.188602107234 0.171011313612 -0.607041540287 -0.724841520371 -0.607040962633 -0.724841433285 -0.187288754639 0.172529369486
1.843 -0.188656712257 0.17146500267 -0.60787745774 -0.724011779615 -0.60787688061 -0.724011705805 -0.187340029818 0.172983111803
1.844 -0.1887104676 0.171919011658 -0.60871209807 -0.723181062808 -0.608711521596 -0.723181002255 -0.187390452592 0.173437168861
1.845 -0.188763372182 0.172373338388 -0.609545459958 -0.722349372372 -0.609544884273 -0.722349325053 -0.18744002189 0.17389153846
1.846 -0.188815424933 0.172827980663 -0.610377542091 -0.721516710728 -0.610376967328 -0.721516676622 -0.187488736645 0.174346218396
1.847 -0.188866624784 0.173282936288 -0.61120834316 -0.720683080304 -0.611207769453 -0.720683059385 -0.187536595801 0.174801206461
1.848 -0.188916970678 0.17373820306 -0.612037861864 -0.719848483525 -0.612037289348 -0.719848475768 -0.187583598305 0.175256500443
1.849 -0.188966461561 0.174193778773 -0.612866096906 -0.719012922823 -0.612865525716 -0.7190129282 -0.187629743112 0.175712098126
1.85 -0.189015096389 0.174649661217 -0.613693046995 -0.718176400631 -0.613692477266 -0.718176419113 -0.187675029185 0.176167997291
1.851 -0.189062874122 0.17510584818 -0.614518710845 -0.717338919383 -0.614518142714 -0.717338950939 -0.187719455493 0.176624195714
1.852 -0.189109793728 0.175562337442 -0.615343087176 -0.716500481517 -0.615342520779 -0.716500526115 -0.187763021011 0.177080691168
1.853 -0.189155854183 0.176019126784 -0.616166174714 -0.715661089472 -0.616165610189 -0.715661147079 -0.187805724722 0.177537481421
1.854 -0.189201054467 0.176476213979 -0.61698797219 -0.714820745692 -0.616987409676 -0.714820816271 -0.187847565616 0.177994564238
1.855 -0.189245393571 0.176933596799 -0.617808478342 -0.713979452619 -0.617807917976 -0.713979536134 -0.187888542689 0.178451937379
1.856 -0.189288870488 0.17739127301 -0.618627691912 -0.713137212702 -0.618627133833 -0.713137309113 -0.187928654946 0.178909598603
1.857 -0.189331484222 0.177849240377 -0.619445611647 -0.712294028388 -0.619445055995 -0.712294137656 -0.187967901395 0.179367545663
1.858 -0.189373233783 0.178307496658 -0.620262236302 -0.711449902129 -0.620261683218 -0.711450024213 -0.188006281056 0.179825776308
1.859 -0.189414118185 0.178766039611 -0.621077564637 -0.71060483638 -0.62107701426 -0.710604971234 -0.188043792951 0.180284288284
1.86 -0.189454136454 0.179224866986 -0.621891595416 -0.709758833594 -0.621891047887 -0.709758981175 -0.188080436114 0.180743079333
1.861 -0.189493287618 0.179683976533 -0.62270432741 -0.708911896232 -0.622703782872 -0.708912056492 -0.188116209581 0.181202147194
1.862 -0.189531570716 0.180143365996 -0.623515759396 -0.708064026751 -0.623515217989 -0.708064199643 -0.188151112398 0.181661489602
1.863 -0.189568984792 0.180603033117 -0.624325890155 -0.707215227616 -0.624325352023 -0.707215413088 -0.188185143619 0.182121104288
1.864 -0.189605528897 0.181062975634 -0.625134718476 -0.706365501291 -0.625134183762 -0.706365699292 -0.188218302303 0.182580988981
1.865 -0.18964120209 0.18152319128 -0.625942243152 -0.705514850241 -0.625941711999 -0.705515060719 -0.188250587516 0.183041141403
1.866 -0.189676003435 0.181983677786 -0.626748462981 -0.704663276937 -0.626747935533 -0.704663499835 -0.188281998332 0.183501559276
1.867 -0.189709932007 0.18244443288 -0.62755337677 -0.703810783849 -0.627552853171 -0.703811019112 -0.188312533833 0.183962240317
1.868 -0.189742986884 0.182905454284 -0.628356983327 -0.702957373449 -0.628356463722 -0.702957621018 -0.188342193105 0.184423182239
1.869 -0.189775167153 0.18336673972 -0.62915928147 -0.702103048214 -0.629158766004 -0.702103308029 -0.188370975246 0.184884382752
1.87 -0.189806471908 0.183828286902 -0.62996027002 -0.70124781062 -0.629959758839 -0.70124808262 -0.188398879357 0.185345839564
1.871 -0.189836900251 0.184290093546 -0.630759947804 -0.700391663147 -0.630759441055 -0.700391947268 -0.188425904547 0.185807550376
1.872 -0.189866451289 0.18475215736 -0.631558313657 -0.699534608276 -0.631557811486 -0.699534904453 -0.188452049934 0.18626951289
1.873 -0.189895124139 0.185214476051 -0.632355366417 -0.69867664849 -0.63235486897 -0.698676956657 -0.188477314641 0.186731724802
1.874 -0.189922917922 0.185677047323 -0.633151104928 -0.697817786274 -0.633150612353 -0.697818106363 -0.188501697801 0.187194183805
1.875 -0.189949831769 0.186139868874 -0.633945528042 -0.696958024116 -0.633945040487 -0.696958356056 -0.188525198551 0.187656887588
1.876 -0.189975864817 0.186602938401 -0.634738634613 -0.696097364505 -0.634738152226 -0.696097708225 -0.188547816037 0.188119833838
1.877 -0.19000101621 0.187066253599 -0.635530423505 -0.695235809933 -0.635529946434 -0.695236165359 -0.188569549413 0.188583020238
1.878 -0.1900252851 0.187529812156 -0.636320893584 -0.694373362891 -0.636320421979 -0.694373729949 -0.188590397838 0.189046444469
1.879 -0.190048670645 0.187993611759 -0.637110043724 -0.693510025877 -0.637109577733 -0.693510404489 -0.188610360481 0.189510104207
1.88 -0.190071172013 0.188457650092 -0.637897872804 -0.692645801385 -0.637897412578 -0.692646191474 -0.188629436517 0.189973997126
1.881 -0.190092788376 0.188921924836 -0.638684379709 -0.691780691916 -0.638683925397 -0.691781093401 -0.188647625128 0.190438120896
1.882 -0.190113518915 0.189386433667 -0.63946956333 -0.69091469997 -0.639469115082 -0.690915112769 -0.188664925504 0.190902473185
1.883 -0.190133362819 0.18985117426 -0.640253422562 -0.69004782805 -0.640252980529 -0.690048252079 -0.188681336842 0.191367051656
1.884 -0.190152319283 0.190316144286 -0.641035956308 -0.68918007866 -0.641035520642 -0.689180513834 -0.188696858346 0.191831853971
1.885 -0.19017038751 0.190781341413 -0.641817163476 -0.688311454306 -0.641816734327 -0.688311900538 -0.188711489229 0.192296877788
1.886 -0.19018756671 0.191246763305 -0.642597042978 -0.687441957496 -0.642596620499 -0.687442414698 -0.18872522871 0.192762120763
1.887 -0.190203856101 0.191712407626 -0.643375593736 -0.686571590741 -0.643375178077 -0.686572058821 -0.188738076016 0.193227580546
1.888 -0.190219254908 0.192178272034 -0.644152814673 -0.685700356551 -0.644152405988 -0.685700835418 -0.188750030381 0.193693254787
1.889 -0.190233762363 0.192644354184 -0.64492870472 -0.684828257441 -0.644928303161 -0.684828747 -0.188761091046 0.194159141133
1.89 -0.190247377707 0.19311065173 -0.645703262815 -0.683955295924 -0.645702868535 -0.68395579608 -0.188771257262 0.194625237226
1.891 -0.190260100187 0.193577162323 -0.6464764879 -0.683081474519 -0.646476101052 -0.683081985174 -0.188780528284 0.195091540707
1.892 -0.190271929057 0.194043883609 -0.647248378923 -0.682206795743 -0.64724799966 -0.682207316799 -0.188788903377 0.195558049213
1.893 -0.19028286358 0.194510813234 -0.648018934838 -0.681331262117 -0.648018563314 -0.681331793472 -0.188796381812 0.196024760379
1.894 -0.190292903026 0.194977948838 -0.648788154605 -0.680454876163 -0.648787790974 -0.680455417714 -0.18880296287 0.196491671836
1.895 -0.190302046672 0.195445288061 -0.64955603719 -0.679577640403 -0.649555681606 -0.679578192046 -0.188808645836 0.196958781214
1.896 -0.190310293803 0.195912828539 -0.650322581563 -0.678699557364 -0.650322234181 -0.678700118993 -0.188813430005 0.197426086139
1.897 -0.190317643711 0.196380567905 -0.651087786703 -0.677820629572 -0.651087447677 -0.677821201079 -0.188817314679 0.197893584234
1.898 -0.190324095697 0.196848503791 -0.651851651592 -0.676940859556 -0.651851321078 -0.67694144083 -0.188820299167 0.198361273121
1.899 -0.190329649068 0.197316633823 -0.652614175219 -0.676060249844 -0.652613853371 -0.676060840776 -0.188822382788 0.198829150416
1.9 -0.190334303138 0.197784955628 -0.65337535658 -0.67517880297 -0.653375043553 -0.675179403445 -0.188823564864 0.199297213737
1.901 -0.190338057231 0.198253466828 -0.654135194673 -0.674296521466 -0.654134890624 -0.674297131369 -0.18882384473 0.199765460695
1.902 -0.190340910677 0.198722165043 -0.654893688506 -0.673413407867 -0.65489339359 -0.67341402708 -0.188823221724 0.200233888901
1.903 -0.190342862813 0.199191047891 -0.655650837091 -0.672529464708 -0.655650551464 -0.672530093114 -0.188821695194 0.200702495963
1.904 -0.190343912986 0.199660112987 -0.656406639446 -0.671644694527 -0.656406363264 -0.671645332006 -0.188819264496 0.201171279486
1.905 -0.190344060547 0.200129357943 -0.657161094594 -0.670759099865 -0.657160828013 -0.670759746293 -0.188815928994 0.201640237073
1.906 -0.190343304859 0.20059878037 -0.657914201566 -0.66987268326 -0.657913944742 -0.669873338515 -0.188811688056 0.202109366323
1.907 -0.190341645289 0.201068377875 -0.658665959396 -0.668985447256 -0.658665712487 -0.668986111211 -0.188806541062 0.202578664836
1.908 -0.190339081214 0.201538148064 -0.659416367125 -0.668097394395 -0.659416130288 -0.668098066923 -0.188800487399 0.203048130205
1.909 -0.190335612017 0.202008088539 -0.660165423802 -0.667208527223 -0.660165197192 -0.667209208194 -0.188793526459 0.203517760024
1.91 -0.190331237089 0.2024781969 -0.660913128478 -0.666318848286 -0.660912912254 -0.666319537569 -0.188785657644 0.203987551884
1.911 -0.190325955831 0.202948470745 -0.661659480214 -0.665428360131 -0.661659274531 -0.665429057594 -0.188776880365 0.204457503372
1.912 -0.190319767648 0.203418907671 -0.662404478072 -0.664537065308 -0.662404283089 -0.664537770815 -0.188767194037 0.204927612076
1.913 -0.190312671956 0.203889505271 -0.663148121124 -0.663644966367 -0.663147936999 -0.663645679782 -0.188756598085 0.205397875578
1.914 -0.190304668176 0.204360261135 -0.663890408446 -0.662752065859 -0.663890235336 -0.662752787044 -0.188745091943 0.20586829146
1.915 -0.19029575574 0.204831172854 -0.664631339121 -0.661858366339 -0.664631177182 -0.661859095153 -0.188732675051 0.206338857301
1.916 -0.190285934084 0.205302238013 -0.665370912236 -0.660963870359 -0.665370761627 -0.660964606661 -0.188719346856 0.206809570678
1.917 -0.190275202654 0.205773454198 -0.666109126885 -0.660068580477 -0.666108987764 -0.660069324122 -0.188705106815 0.207280429167
1.918 -0.190263560905 0.206244818991 -0.666845982168 -0.659172499248 -0.666845854693 -0.659173250091 -0.188689954393 0.207751430339
1.919 -0.190251008296 0.206716329971 -0.66758147719 -0.658275629231 -0.667581361519 -0.658276387125 -0.18867388906 0.208222571766
1.92 -0.190237544298 0.207187984719 -0.668315611063 -0.657377972985 -0.668315507354 -0.65737873778 -0.188656910296 0.208693851017
1.921 -0.190223168386 0.207659780809 -0.669048382905 -0.656479533071 -0.669048291315 -0.656480304616 -0.188639017588 0.209165265657
1.922 -0.190207880046 0.208131715816 -0.669779791838 -0.655580312051 -0.669779712526 -0.655581090193 -0.188620210433 0.209636813251
1.923 -0.19019167877 0.208603787312 -0.670509836992 -0.654680312487 -0.670509770116 -0.654681097072 -0.188600488332 0.210108491362
1.924 -0.190174564058 0.209075992867 -0.671238517501 -0.653779536944 -0.671238463219 -0.653780327815 -0.188579850798 0.21058029755
1.925 -0.190156535419 0.209548330051 -0.671965832506 -0.652877987987 -0.671965790977 -0.652878784986 -0.188558297349 0.211052229374
1.926 -0.190137592369 0.210020796428 -0.672691781154 -0.651975668182 -0.672691752535 -0.651976471148 -0.188535827511 0.211524284391
1.927 -0.190117734431 0.210493389564 -0.673416362598 -0.651072580098 -0.673416347048 -0.651073388869 -0.18851244082 0.211996460156
1.928 -0.190096961138 0.210966107022 -0.674139575995 -0.650168726302 -0.674139573672 -0.650169540715 -0.188488136819 0.212468754222
1.929 -0.190075272029 0.211438946362 -0.67486142051 -0.649264109365 -0.674861431573 -0.649264929253 -0.188462915058 0.21294116414
1.93 -0.190052666652 0.211911905143 -0.675581895314 -0.648358731856 -0.67558191992 -0.648359557053 -0.188436775096 0.213413687459
1.931 -0.190029144563 0.212384980923 -0.676300999581 -0.647452596349 -0.676301037889 -0.647453426684 -0.188409716499 0.213886321728
1.932 -0.190004705324 0.212858171257 -0.677018732495 -0.646545705416 -0.677018784663 -0.646546540718 -0.188381738841 0.214359064492
1.933 -0.189979348507 0.2133314737 -0.677735093243 -0.64563806163 -0.677735159428 -0.645638901726 -0.188352841706 0.214831913296
1.934 -0.189953073692 0.213804885803 -0.678450081018 -0.644729667567 -0.678450161379 -0.644730512282 -0.188323024684 0.215304865683
1.935 -0.189925880465 0.214278405117 -0.679163695021 -0.643820525802 -0.679163789716 -0.64382137496 -0.188292287373 0.215777919193
1.936 -0.189897768423 0.214752029191 -0.679875934456 -0.642910638913 -0.679876043642 -0.642911492335 -0.18826062938 0.216251071366
1.937 -0.189868737168 0.215225755573 -0.680586798534 -0.642000009477 -0.68058692237 -0.642000866982 -0.188228050319 0.216724319741
1.938 -0.189838786311 0.215699581808 -0.681296286474 -0.641088640072 -0.681296425118 -0.641089501478 -0.188194549812 0.217197661853
1.939 -0.189807915472 0.216173505441 -0.682004397498 -0.640176533279 -0.682004551106 -0.640177398402 -0.188160127491 0.217671095237
1.94 -0.189776124277 0.216647524015 -0.682711130835 -0.639263691678 -0.682711299566 -0.639264560331 -0.188124782994 0.218144617427
1.941 -0.189743412363 0.217121635071 -0.683416485719 -0.63835011785 -0.68341666973 -0.638350989846 -0.188088515967 0.218618225954
1.942 -0.189709779371 0.217595836148 -0.684120461392 -0.637435814377 -0.684120660841 -0.637436689526 -0.188051326065 0.219091918351
1.943 -0.189675224953 0.218070124787 -0.684823057101 -0.636520783843 -0.684823272144 -0.636521661954 -0.188013212951 0.219565692144
1.944 -0.189639748768 0.218544498523 -0.685524272097 -0.635605028832 -0.685524502892 -0.63560590971 -0.187974176296 0.220039544864
1.945 -0.189603350484 0.219018954894 -0.686224105639 -0.634688551928 -0.686224352343 -0.634689435378 -0.187934215778 0.220513474035
1.946 -0.189566029775 0.219493491433 -0.686922556992 -0.633771355716 -0.686922819761 -0.633772241542 -0.187893331084 0.220987477183
1.947 -0.189527786326 0.219968105674 -0.687619625425 -0.632853442784 -0.687619904416 -0.632854330786 -0.18785152191 0.221461551833
1.948 -0.189488619826 0.220442795148 -0.688315310215 -0.631934815718 -0.688315605584 -0.631935705695 -0.187808787958 0.221935695507
1.949 -0.189448529976 0.220917557388 -0.689009610643 -0.631015477106 -0.689009922547 -0.631016368856 -0.187765128939 0.222409905727
1.95 -0.189407516483 0.221392389922 -0.689702525997 -0.630095429537 -0.689702854592 -0.630096322854 -0.187720544573 0.222884180012
1.951 -0.189365579062 0.221867290279 -0.690394055572 -0.629174675599 -0.690394401014 -0.629175570277 -0.187675034588 0.223358515884
1.952 -0.189322717438 0.222342255987 -0.691084198666 -0.628253217883 -0.691084561111 -0.628254113714 -0.187628598719 0.223832910858
1.953 -0.18927893134 0.222817284572 -0.691772954585 -0.62733105898 -0.691773334188 -0.627331955753 -0.187581236709 0.224307362454
1.954 -0.189234220511 0.223292373559 -0.692460322641 -0.62640820148 -0.692460719558 -0.626409098983 -0.18753294831 0.224781868186
1.955 -0.189188584696 0.223767520473 -0.693146302151 -0.625484647976 -0.693146716536 -0.625485545996 -0.187483733283 0.22525642557
1.956 -0.189142023652 0.224242722836 -0.693830892437 -0.62456040106 -0.693831324446 -0.62456129938 -0.187433591394 0.22573103212
1.957 -0.189094537144 0.224717978172 -0.69451409283 -0.623635463325 -0.694514542617 -0.623636361728 -0.187382522421 0.22620568535
1.958 -0.189046124942 0.225193284001 -0.695195902663 -0.622709837366 -0.695196370383 -0.622710735632 -0.187330526148 0.22668038277
1.959 -0.188996786828 0.225668637844 -0.695876321278 -0.621783525776 -0.695876807085 -0.621784423684 -0.187277602368 0.227155121894
1.96 -0.18894652259 0.226144037221 -0.696555348022 -0.620856531151 -0.696555852069 -0.620857428476 -0.18722375088 0.227629900231
1.961 -0.188895332023 0.226619479651 -0.697232982246 -0.619928856085 -0.697233504688 -0.619929752604 -0.187168971494 0.228104715292
1.962 -0.188843214934 0.227094962651 -0.69790922331 -0.619000503176 -0.6979097643 -0.61900139866 -0.187113264027 0.228579564584
1.963 -0.188790171134 0.227570483738 -0.698584070578 -0.618071475019 -0.698584630268 -0.61807236924 -0.187056628304 0.229054445617
1.964 -0.188736200444 0.22804604043 -0.69925752342 -0.617141774211 -0.699258101964 -0.617142666938 -0.186999064159 0.229529355897
1.965 -0.188681302694 0.228521630242 -0.699929581212 -0.61621140335 -0.699930178762 -0.616212294351 -0.186940571433 0.230004292932
1.966 -0.18862547772 0.228997250689 -0.700600243336 -0.615280365034 -0.700600860044 -0.615281254073 -0.186881149975 0.230479254228
1.967 -0.188568725368 0.229472899286 -0.701269509181 -0.614348661862 -0.701270145199 -0.614349548703 -0.186820799644 0.230954237289
1.968 -0.188511045491 0.229948573546 -0.701937378139 -0.613416296431 -0.701938033619 -0.613417180836 -0.186759520306 0.231429239622
1.969 -0.188452437951 0.230424270982 -0.702603849611 -0.612483271342 -0.702604524703 -0.61248415307 -0.186697311836 0.23190425873
1.97 -0.188392902617 0.230899989108 -0.703268923001 -0.611549589194 -0.703269617858 -0.611550468004 -0.186634174115 0.232379292117
1.971 -0.188332439368 0.231375725435 -0.703932597723 -0.610615252586 -0.703933312493 -0.610616128234 -0.186570107035 0.232854337287
1.972 -0.18827104809 0.231851477476 -0.704594873191 -0.60968026412 -0.704595608026 -0.609681136359 -0.186505110494 0.233329391742
1.973 -0.188208728676 0.23232724274 -0.705255748831 -0.608744626396 -0.70525650388 -0.608745494979 -0.186439184401 0.233804452984
1.974 -0.18814548103 0.23280301874 -0.705915224071 -0.607808342015 -0.705915999483 -0.607809206692 -0.186372328669 0.234279518516
1.975 -0.188081305062 0.233278802985 -0.706573298345 -0.606871413578 -0.70657409427 -0.606872274099 -0.186304543224 0.23475458584
1.976 -0.18801620069 0.233754592986 -0.707229971095 -0.605933843688 -0.707230787681 -0.605934699797 -0.186235827996 0.235229652456
1.977 -0.187950167842 0.234230386252 -0.707885241767 -0.604995634945 -0.707886079162 -0.604996486389 -0.186166182927 0.235704715866
1.978 -0.187883206453 0.234706180293 -0.708539109814 -0.604056789953 -0.708539968166 -0.604057636474 -0.186095607963 0.23617977357
1.979 -0.187815316466 0.235181972618 -0.709191574694 -0.603117311314 -0.709192454151 -0.603118152653 -0.186024103063 0.236654823069
1.98 -0.187746497834 0.235657760735 -0.709842635871 -0.602177201629 -0.70984353658 -0.602178037526 -0.18595166819 0.237129861863
1.981 -0.187676750514 0.236133542154 -0.710492292816 -0.601236463504 -0.710493214923 -0.601237293695 -0.185878303317 0.237604887452
1.982 -0.187606074476 0.236609314383 -0.711140545004 -0.600295099539 -0.711141488655 -0.60029592376 -0.185804008427 0.238079897336
1.983 -0.187534469696 0.23708507493 -0.711787391918 -0.599353112339 -0.711788357258 -0.599353930324 -0.185728783508 0.238554889015
1.984 -0.187461936158 0.237560821304 -0.712432833044 -0.598410504507 -0.71243382022 -0.598411315987 -0.185652628559 0.239029859988
1.985 -0.187388473854 0.238036551013 -0.713076867877 -0.597467278647 -0.713077877032 -0.597468083352 -0.185575543585 0.239504807756
1.986 -0.187314082785 0.238512261564 -0.713719495915 -0.596523437362 -0.713720527195 -0.596524235021 -0.185497528601 0.239979729818
1.987 -0.187238762961 0.238987950467 -0.714360716665 -0.595578983257 -0.714361770213 -0.595579773594 -0.185418583629 0.240454623674
1.988 -0.187162514398 0.23946361523 -0.715000529637 -0.594633918934 -0.715001605596 -0.594634701675 -0.185338708699 0.240929486823
1.989 -0.187085337121 0.239939253359 -0.715638934348 -0.593688246999 -0.715640032861 -0.593689021865 -0.185257903852 0.241404316765
1.99 -0.187007231165 0.240414862365 -0.716275930321 -0.592741970055 -0.71627705153 -0.592742736768 -0.185176169134 0.241879111001
1.991 -0.18692819657 0.240890439755 -0.716911517084 -0.591795090707 -0.716912661132 -0.591795848984 -0.185093504601 0.242353867029
1.992 -0.186848233387 0.241365983038 -0.717545694173 -0.590847611558 -0.7175468612 -0.590848361117 -0.185009910316 0.242828582352
1.993 -0.186767341675 0.241841489723 -0.718178461126 -0.589899535213 -0.718179651274 -0.589900275768 -0.184925386352 0.243303254468
1.994 -0.186685521499 0.242316957319 -0.718809817492 -0.588950864276 -0.7188110309 -0.588951595541 -0.184839932788 0.243777880879
1.995 -0.186602772934 0.242792383334 -0.719439762821 -0.588001601351 -0.719440999629 -0.588002323036 -0.184753549714 0.244252459085
1.996 -0.186519096062 0.243267765279 -0.720068296671 -0.587051749043 -0.720069557019 -0.587052460858 -0.184666237227 0.244726986589
1.997 -0.186434490976 0.243743100662 -0.720695418607 -0.586101309955 -0.720696702632 -0.586102011607 -0.18457799543 0.245201460891
1.998 -0.186348957773 0.244218386996 -0.721321128197 -0.585150286692 -0.721322436038 -0.585150977887 -0.184488824438 0.245675879494
1.999 -0.186262496562 0.244693621789 -0.721945425016 -0.584198681857 -0.721946756811 -0.584199362299 -0.184398724372 0.2461502399
2 -0.186175107457 0.245168802553 -0.722568308647 -0.583246498055 -0.722569664531 -0.583247167445 -0.184307695362 0.246624539612
