! T01-A finite-conductivity nominal export
# GHZ S RI R 50
1 0.00396452291301 0.00926711510342 0.352886851649 -0.922432228069 0.352886794225 -0.922432429068 0.00393231793456 0.00933612089306
1.001 0.00384454464853 0.00922105504078 0.351759802196 -0.922849330242 0.351759672896 -0.922849537638 0.00381237398481 0.00929023091228
1.002 0.00372411954371 0.00917516117415 0.350632211242 -0.923265079347 0.350632010766 -0.923265292812 0.00369198368839 0.00924450687579
1.003 0.00360324770089 0.00912943503516 0.349504080207 -0.923679474358 0.349503809254 -0.923679693564 0.00357114714604 0.00919895031394
1.004 0.00348192922743 0.00908387815578 0.348375410511 -0.924092514248 0.348375069777 -0.924092738874 0.00344986446347 0.00915356275739
1.005 0.00336016423567 0.00903849206826 0.347246203579 -0.924504197992 0.347245793757 -0.924504427719 0.00332813575142 0.0091083457371
1.006 0.00323795284296 0.00899327830512 0.346116460839 -0.924914524569 0.34611598262 -0.92491475908 0.00320596112561 0.00906330078433
1.007 0.00311529517166 0.00894823839917 0.344986183721 -0.925323492954 0.344985637793 -0.925323731937 0.00308334070676 0.0090184294306
1.008 0.00299219134912 0.00890337388341 0.343855373659 -0.925731102127 0.343854760707 -0.925731345273 0.0029602746206 0.00897373320769
1.009 0.0028686415077 0.00885868629111 0.34272403209 -0.926137351068 0.342723352796 -0.926137598072 0.00283676299785 0.0089292136476
1.01 0.00274464578474 0.00881417715572 0.341592160451 -0.926542238758 0.341591415497 -0.926542489317 0.00271280597424 0.00888487228256
1.011 0.0026202043226 0.00876984801089 0.340459760187 -0.926945764178 0.34045895025 -0.926946017993 0.00258840369049 0.00884071064498
1.012 0.00249531726865 0.00872570039043 0.339326832742 -0.927347926313 0.339325958497 -0.927348183088 0.00246355629233 0.00879673026749
1.013 0.00236998477524 0.00868173582833 0.338193379566 -0.927748724146 0.338192441684 -0.92774898359 0.00233826393046 0.00875293268285
1.014 0.00224420699973 0.00863795585871 0.337059402108 -0.928148156664 0.337058401261 -0.928148418486 0.00221252676063 0.00870931942399
1.015 0.00211798410447 0.00859436201578 0.335924901824 -0.928546222853 0.335923838678 -0.928546486768 0.00208634494354 0.00866589202396
1.016 0.00199131625683 0.00855095583391 0.334789880171 -0.928942921701 0.334788755391 -0.928943187426 0.00195971864492 0.00862265201593
1.017 0.00186420362917 0.00850773884752 0.33365433861 -0.929338252197 0.333653152858 -0.929338519454 0.00183264803549 0.00857960093318
1.018 0.00173664639884 0.00846471259111 0.332518278603 -0.929732213332 0.332517032538 -0.929732481844 0.00170513329097 0.00853674030906
1.019 0.00160864474819 0.00842187859924 0.331381701617 -0.930124804098 0.331380395897 -0.930125073591 0.00157717459206 0.00849407167698
1.02 0.00148019886459 0.0083792384065 0.330244609122 -0.930516023487 0.3302432444 -0.930516293692 0.00144877212449 0.00845159657041
1.021 0.00135130894039 0.00833679354751 0.32910700259 -0.930905870494 0.329105579518 -0.930906141144 0.00131992607896 0.00840931652284
1.022 0.00122197517292 0.00829454555689 0.327968883496 -0.931294344113 0.327967402723 -0.931294614945 0.00119063665117 0.00836723306779
1.023 0.00109219776454 0.00825249596925 0.326830253318 -0.931681443342 0.326828715491 -0.931681714095 0.00106090404183 0.00832534773876
1.024 0.000961976922583 0.00821064631916 0.325691113539 -0.932067167178 0.3256895193 -0.932067437595 0.000930728456624 0.00828366206924
1.025 0.000831312859383 0.00816899814115 0.324551465641 -0.93245151462 0.324549815632 -0.932451784448 0.00080011010625 0.00824217759268
1.026 0.000700205792267 0.0081275529697 0.323411311113 -0.932834484669 0.323409605973 -0.932834753656 0.000669049206385 0.00820089584249
1.027 0.000568655943552 0.00808631233919 0.322270651445 -0.933216076327 0.322268891809 -0.933216344226 0.000537545977703 0.00815981835199
1.028 0.000436663540547 0.00804527778392 0.321129488129 -0.933596288597 0.321127674631 -0.933596555161 0.000405600645867 0.00811894665443
1.029 0.000304228815552 0.00800445083807 0.319987822664 -0.933975120483 0.319985955934 -0.933975385471 0.000273213441532 0.00807828228296
1.03 0.000171352005854 0.00796383303569 0.318845656547 -0.93435257099 0.318843737213 -0.934352834164 0.000140384600339 0.00803782677059
1.031 3.80333537285e-05 0.00792342591068 0.317702991281 -0.934728639126 0.317701019968 -0.93472890025 7.11436291964e-06 0.00799758165021
1.032 -9.57268935619e-05 0.0078832309968 0.316559828371 -0.935103323899 0.316557805703 -0.93510358274 -0.000126597025111 0.00795754845457
1.033 -0.000229928483771 0.00784324982761 0.315416169326 -0.935476624318 0.315414095922 -0.935476880647 -0.00026074931315 0.00791772871622
1.034 -0.000364571159668 0.00780348393647 0.314272015657 -0.935848539396 0.314269892135 -0.935848792985 -0.000395342245614 0.00787812396755
1.035 -0.000499654659042 0.00776393485655 0.313127368878 -0.936219068143 0.313125195852 -0.936219318769 -0.000530375561935 0.00783873574073
1.036 -0.0006351787147 0.00772460412078 0.311982230507 -0.936588209574 0.31198000859 -0.936588457016 -0.000665848996564 0.00779956556774
1.037 -0.00077114305447 0.00768549326184 0.310836602063 -0.936955962705 0.310834331864 -0.936956206744 -0.000801762278973 0.00776061498029
1.038 -0.000907547401202 0.00764660381217 0.309690485071 -0.937322326551 0.309688167197 -0.937322566972 -0.000938115133659 0.00772188550987
1.039 -0.00104439147277 0.0076079373039 0.308543881056 -0.937687300131 0.308541516112 -0.937687536722 -0.00107490728014 0.00768337868767
1.04 -0.00118167498209 0.00756949526889 0.307396791548 -0.938050882463 0.307394380134 -0.938051115016 -0.00121213843295 0.00764509604463
1.041 -0.00131939763707 0.00753127923869 0.306249218078 -0.93841307257 0.306246760795 -0.938413300877 -0.00134980830168 0.00760703911137
1.042 -0.00145755914068 0.00749329074451 0.305101162183 -0.938773869472 0.305098659626 -0.93877409333 -0.00148791659092 0.0075692094182
1.043 -0.00159615919091 0.00745553131724 0.3039526254 -0.939133272194 0.303950078164 -0.939133491402 -0.00162646300029 0.00753160849509
1.044 -0.00173519748078 0.00741800248739 0.302803609271 -0.939491279762 0.302801017946 -0.939491494122 -0.00176544722447 0.00749423787167
1.045 -0.00187467369836 0.00738070578511 0.301654115341 -0.9398478912 0.301651480515 -0.939848100517 -0.00190486895316 0.0074570990772
1.046 -0.00201458752674 0.00734364274014 0.300504145155 -0.940203105538 0.300501467415 -0.94020330962 -0.00204472787108 0.00742019364056
1.047 -0.00215493864406 0.00730681488183 0.299353700265 -0.940556921806 0.299350980194 -0.940557120463 -0.00218502365802 0.00738352309024
1.048 -0.00229572672349 0.00727022373911 0.298202782224 -0.940909339033 0.298200020402 -0.940909532078 -0.00232575598878 0.00734708895429
1.049 -0.00243695143327 0.00723387084045 0.297051392588 -0.941260356253 0.297048589594 -0.941260543503 -0.00246692453323 0.00731089276037
1.05 -0.00257861243667 0.00719775771389 0.295899532916 -0.9416099725 0.295896689325 -0.941610153772 -0.00260852895627 0.00727493603566
1.051 -0.00272070939199 0.00716188588698 0.294747204771 -0.94195818681 0.294744321155 -0.941958361926 -0.00275056891785 0.00723922030689
1.052 -0.00286324195262 0.00712625688678 0.293594409718 -0.942304998218 0.293591486647 -0.942305167003 -0.00289304407297 0.00720374710032
1.053 -0.00300620976697 0.00709087223988 0.292441149325 -0.942650405765 0.292438187367 -0.942650568044 -0.00303595407168 0.00716851794171
1.054 -0.00314961247852 0.00705573347231 0.291287425164 -0.94299440849 0.291284424882 -0.942994564094 -0.0031792985591 0.0071335343563
1.055 -0.00329344972582 0.00702084210958 0.290133238808 -0.943337005435 0.290130200766 -0.943337154195 -0.00332307717538 0.00709879786883
1.056 -0.00343772114246 0.00698619967666 0.288978591834 -0.943678195643 0.288975516592 -0.943678337395 -0.00346728955575 0.00706431000346
1.057 -0.0035824263571 0.00695180769794 0.287823485824 -0.94401797816 0.287820373937 -0.94401811274 -0.00361193533049 0.00703007228383
1.058 -0.00372756499348 0.00691766769723 0.28666792236 -0.944356352031 0.286664774383 -0.944356479279 -0.00375701412496 0.00699608623298
1.059 -0.00387313667038 0.00688378119774 0.285511903029 -0.944693316305 0.285508719513 -0.944693436065 -0.00390252555958 0.00696235337338
1.06 -0.00401914100169 0.00685014972207 0.284355429419 -0.945028870031 0.284352210913 -0.945028982147 -0.00404846924983 0.00692887522689
1.061 -0.00416557759635 0.00681677479219 0.283198503123 -0.945363012261 0.283195250174 -0.945363116581 -0.00419484480627 0.00689565331472
1.062 -0.00431244605837 0.00678365792943 0.282041125736 -0.945695742048 0.282037838887 -0.945695838422 -0.00434165183454 0.0068626891575
1.063 -0.00445974598687 0.00675080065444 0.280883298857 -0.946027058445 0.280879978649 -0.946027146727 -0.00448888993536 0.00682998427515
1.064 -0.00460747697602 0.00671820448721 0.279725024085 -0.946356960511 0.279721671057 -0.946357040554 -0.00463655870452 0.00679754018697
1.065 -0.0047556386151 0.00668587094703 0.278566303026 -0.946685447301 0.278562917713 -0.946685518965 -0.00478465773291 0.00676535841153
1.066 -0.00490423048848 0.00665380155249 0.277407137287 -0.947012517876 0.277403720222 -0.947012581021 -0.00493318660649 0.00673344046674
1.067 -0.0050532521756 0.00662199782144 0.276247528478 -0.947338171297 0.276244080192 -0.947338225785 -0.00508214490633 0.00670178786978
1.068 -0.00520270325102 0.00659046127101 0.275087478211 -0.947662406626 0.275083999231 -0.947662452323 -0.00523153220856 0.0066704021371
1.069 -0.00535258328439 0.00655919341756 0.273926988103 -0.947985222929 0.273923478956 -0.947985259703 -0.00538134808446 0.00663928478439
1.07 -0.00550289184045 0.0065281957767 0.272766059774 -0.948306619272 0.27276252098 -0.948306646992 -0.00553159210035 0.0066084373266
1.071 -0.00565362847907 0.00649746986322 0.271604694844 -0.948626594722 0.271601126925 -0.948626613261 -0.0056822638177 0.0065778612779
1.072 -0.00580479275522 0.00646701719114 0.27044289494 -0.948945148349 0.270439298412 -0.948945157583 -0.00583336279306 0.00654755815166
1.073 -0.00595638421895 0.00643683927365 0.269280661689 -0.949262279225 0.269277037067 -0.949262279031 -0.00598488857811 0.00651752946043
1.074 -0.00610840241548 0.00640693762312 0.268117996722 -0.949577986422 0.268114344518 -0.94957797668 -0.00613684071962 0.00648777671597
1.075 -0.00626084688512 0.00637731375106 0.266954901673 -0.949892269017 0.266951222396 -0.949892249608 -0.00628921875949 0.00645830142917
1.076 -0.00641371716329 0.00634796916811 0.265791378179 -0.950205126084 0.265787672337 -0.950205096893 -0.00644202223474 0.00642910511008
1.077 -0.00656701278056 0.00631890538406 0.264627427881 -0.950516556703 0.264623695976 -0.950516517618 -0.00659525067751 0.00640018926789
1.078 -0.00672073326262 0.00629012390778 0.26346305242 -0.950826559955 0.263459294956 -0.950826510864 -0.00674890361506 0.00637155541088
1.079 -0.00687487813029 0.00626162624725 0.262298253443 -0.95113513492 0.262294470917 -0.951135075715 -0.0069029805698 0.00634320504645
1.08 -0.00702944689953 0.00623341390952 0.261133032599 -0.951442280683 0.261129225508 -0.951442211258 -0.00705748105926 0.00631513968108
1.081 -0.00718443908145 0.00620548840071 0.25996739154 -0.95174799633 0.259963560377 -0.95174791658 -0.0072124045961 0.00628736082032
1.082 -0.00733985418228 0.00617785122596 0.258801331919 -0.952052280947 0.258797477176 -0.952052190771 -0.00736775068815 0.00625986996877
1.083 -0.00749569170343 0.00615050388947 0.257634855396 -0.952355133625 0.257630977561 -0.952355032923 -0.00752351883836 0.00623266863009
1.084 -0.00765195114144 0.00612344789445 0.256467963631 -0.952656553454 0.25646406319 -0.95265644213 -0.00767970854482 0.00620575830693
1.085 -0.00780863198801 0.00609668474311 0.255300658288 -0.952956539526 0.255296735723 -0.952956417485 -0.00783631930081 0.00617914050097
1.086 -0.00796573373 0.00607021593664 0.254132941033 -0.953255090938 0.254128996825 -0.953254958087 -0.00799335059474 0.0061528167129
1.087 -0.00812325584943 0.00604404297521 0.252964813536 -0.953552206786 0.252960848163 -0.953552063033 -0.00815080191018 0.00612678844235
1.088 -0.00828119782351 0.00601816735793 0.251796277469 -0.953847886167 0.251792291407 -0.953847731426 -0.00830867272588 0.00610105718795
1.089 -0.00843955912459 0.00599259058289 0.250627334509 -0.954142128183 0.25062332823 -0.954141962366 -0.00846696251575 0.00607562444727
1.09 -0.00859833922021 0.00596731414706 0.249457986333 -0.954434931936 0.249453960307 -0.95443475496 -0.00862567074887 0.0060504917168
1.091 -0.0087575375731 0.00594233954636 0.248288234623 -0.954726296531 0.248284189318 -0.954726108313 -0.00878479688949 0.00602566049197
1.092 -0.00891715364116 0.00591766827558 0.247118081064 -0.955016221072 0.247114016944 -0.955016021534 -0.00894434039706 0.0060011322671
1.093 -0.00907718687749 0.00589330182841 0.245947527343 -0.955304704669 0.245943444871 -0.955304493732 -0.00910430072621 0.00597690853541
1.094 -0.00923763673037 0.00586924169741 0.244776575151 -0.955591746431 0.244772474785 -0.95559152402 -0.00926467732674 0.005952990789
1.095 -0.00939850264328 0.00584548937398 0.24360522618 -0.955877345471 0.243601108379 -0.955877111512 -0.00942546964368 0.00592938051881
1.096 -0.00955978405492 0.00582204634836 0.242433482127 -0.956161500901 0.242429347344 -0.956161255324 -0.00958667711721 0.00590607921465
1.097 -0.00972148039916 0.00579891410963 0.241261344691 -0.956444211839 0.241257193379 -0.956443954573 -0.00974829918276 0.00588308836514
1.098 -0.00988359110511 0.00577609414566 0.240088815575 -0.956725477402 0.240084648182 -0.95672520838 -0.00991033527093 0.00586040945774
1.099 -0.0100461155971 0.00575358794312 0.238915896483 -0.95700529671 0.238911713456 -0.957005015867 -0.0100727848076 0.00583804397869
1.1 -0.0102090532946 0.00573139698748 0.237742589123 -0.957283668884 0.237738390907 -0.957283376157 -0.0102356472137 0.00581599341304
1.101 -0.0103724036125 0.00570952276294 0.236568895207 -0.957560593049 0.236564682242 -0.957560288376 -0.0103989219055 0.00579425924459
1.102 -0.0105361659606 0.00568796675249 0.235394816448 -0.95783606833 0.235390589174 -0.957835751653 -0.0105626082946 0.00577284295591
1.103 -0.0107003397442 0.00566673043783 0.234220354564 -0.958110093855 0.234216113416 -0.958109765116 -0.0107267057877 0.00575174602832
1.104 -0.0108649243639 0.00564581529938 0.233045511274 -0.958382668754 0.233041256686 -0.958382327898 -0.0108912137867 0.00573096994185
1.105 -0.0110299192152 0.0056252228163 0.2318702883 -0.958653792159 0.231866020703 -0.958653439132 -0.0110561316887 0.00571051617528
1.106 -0.0111953236891 0.00560495446641 0.230694687369 -0.958923463205 0.230690407192 -0.958923097956 -0.0112214588862 0.00569038620605
1.107 -0.0113611371718 0.00558501172623 0.229518710209 -0.959191681026 0.229514417877 -0.959191303506 -0.011387194767 0.00567058151032
1.108 -0.0115273590447 0.00556539607093 0.228342358552 -0.959458444762 0.228338054489 -0.959458054922 -0.0115533387138 0.00565110356291
1.109 -0.0116939886846 0.00554610897434 0.227165634132 -0.959723753552 0.227161318758 -0.959723351347 -0.0117198901049 0.00563195383728
1.11 -0.0118610254635 0.00552715190894 0.225988538686 -0.959987606539 0.22598421242 -0.959987191925 -0.0118868483138 0.00561313380557
1.111 -0.0120284687485 0.00550852634581 0.224811073955 -0.960250002867 0.224806737212 -0.960249575803 -0.0120542127091 0.00559464493851
1.112 -0.0121963179023 0.00549023375465 0.223633241682 -0.960510941682 0.223628894875 -0.960510502128 -0.0122219826549 0.00557648870549
1.113 -0.0123645722825 0.00547227560375 0.222455043613 -0.960770422135 0.222450687153 -0.960769970051 -0.0123901575103 0.00555866657445
1.114 -0.0125332312424 0.00545465335998 0.221276481498 -0.961028443374 0.221272115792 -0.961027978725 -0.01255873663 0.00554118001197
1.115 -0.0127022941302 0.00543736848879 0.220097557087 -0.961285004553 0.220093182541 -0.961284527304 -0.0127277193637 0.00552403048315
1.116 -0.0128717602896 0.00542042245417 0.218918272137 -0.961540104828 0.218913889153 -0.961539614945 -0.0128971050566 0.0055072194517
1.117 -0.0130416290597 0.00540381671865 0.217738628404 -0.961793743355 0.217734237383 -0.961793240808 -0.0130668930491 0.00549074837984
1.118 -0.0132118997747 0.00538755274328 0.21655862765 -0.962045919293 0.216554228989 -0.962045404054 -0.0132370826768 0.00547461872833
1.119 -0.0133825717641 0.00537163198764 0.215378271638 -0.962296631806 0.215373865732 -0.962296103845 -0.0134076732709 0.00545883195645
1.12 -0.0135536443529 0.00535605590977 0.214197562135 -0.962545880055 0.214193149376 -0.962545339348 -0.0135786641577 0.00544338952199
1.121 -0.0137251168613 0.00534082596624 0.21301650091 -0.962793663208 0.213012081689 -0.96279310973 -0.0137500546587 0.00542829288121
1.122 -0.0138969886049 0.00532594361206 0.211835089735 -0.963039980432 0.211830664438 -0.963039414161 -0.013921844091 0.00541354348885
1.123 -0.0140692588946 0.00531141030069 0.210653330385 -0.963284830897 0.210648899399 -0.963284251814 -0.0140940317668 0.00539914279814
1.124 -0.0142419270364 0.00529722748405 0.20947122464 -0.963528213778 0.209466788345 -0.963527621862 -0.0142666169938 0.00538509226072
1.125 -0.0144149923321 0.00528339661248 0.208288774278 -0.963770128247 0.208284333055 -0.963769523482 -0.014439599075 0.00537139332668
1.126 -0.0145884540785 0.00526991913473 0.207105981086 -0.964010573484 0.207101535312 -0.964009955853 -0.0146129773087 0.00535804744454
1.127 -0.0147623115679 0.00525679649796 0.205922846848 -0.964249548666 0.205918396897 -0.964248918156 -0.0147867509884 0.0053450560612
1.128 -0.0149365640879 0.00524403014771 0.204739373355 -0.964487052976 0.2047349196 -0.964486409575 -0.0149609194032 0.00533242062198
1.129 -0.0151112109215 0.0052316215279 0.2035555624 -0.964723085597 0.20355110521 -0.964722429294 -0.0151354818376 0.00532014257056
1.13 -0.0152862513469 0.0052195720808 0.202371415777 -0.964957645716 0.20236695552 -0.964956976502 -0.0153104375711 0.005308223349
1.131 -0.0154616846381 0.00520788324703 0.201186935285 -0.965190732522 0.201182472325 -0.96519005039 -0.015485785879 0.00529666439771
1.132 -0.0156375100639 0.00519655646555 0.200002122725 -0.965422345205 0.199997657424 -0.965421650148 -0.0156615260316 0.00528546715542
1.133 -0.015813726889 0.00518559317363 0.198816979901 -0.965652482958 0.198812512618 -0.965651774973 -0.0158376572949 0.00527463305921
1.134 -0.0159903343732 0.00517499480685 0.19763150862 -0.965881144977 0.197627039713 -0.965880424061 -0.0160141789301 0.00526416354446
1.135 -0.0161673317718 0.00516476279908 0.196445710692 -0.96610833046 0.196441240514 -0.966107596612 -0.0161910901938 0.00525406004484
1.136 -0.0163447183355 0.00515489858247 0.195259587929 -0.966334038607 0.195255116833 -0.966333291827 -0.0163683903381 0.00524432399232
1.137 -0.0165224933102 0.00514540358745 0.194073142146 -0.966558268621 0.194068670482 -0.966557508911 -0.0165460786103 0.00523495681712
1.138 -0.0167006559377 0.00513627924268 0.192886375162 -0.966781019706 0.192881903276 -0.96678024707 -0.0167241542534 0.00522595994775
1.139 -0.0168792054546 0.00512752697507 0.191699288798 -0.96700229107 0.191694817035 -0.967001505512 -0.0169026165055 0.00521733481094
1.14 -0.0170581410935 0.00511914820975 0.190511884878 -0.967222081922 0.19050741358 -0.96722128345 -0.0170814646004 0.00520908283166
1.141 -0.017237462082 0.00511114437008 0.189324165229 -0.967440391476 0.189319694735 -0.967439580096 -0.0172606977671 0.00520120543309
1.142 -0.0174171676434 0.00510351687759 0.18813613168 -0.967657218944 0.188131662327 -0.967656394667 -0.0174403152303 0.00519370403661
1.143 -0.0175972569963 0.00509626715203 0.186947786064 -0.967872563545 0.186943318187 -0.96787172638 -0.0176203162097 0.00518658006182
1.144 -0.0177777293548 0.0050893966113 0.185759130217 -0.968086424497 0.185754664147 -0.968085574458 -0.017800699921 0.00517983492647
1.145 -0.0179585839285 0.00508290667146 0.184570165975 -0.968298801022 0.184565702043 -0.968297938122 -0.0179814655749 0.00517347004649
1.146 -0.0181398199224 0.00507679874674 0.183380895181 -0.968509692345 0.183376433714 -0.968508816599 -0.0181626123777 0.00516748683595
1.147 -0.0183214365369 0.00507107424947 0.182191319678 -0.968719097692 0.182186861 -0.968718209117 -0.0183441395312 0.00516188670707
1.148 -0.018503432968 0.00506573459014 0.181001441313 -0.968927016292 0.180996985745 -0.968926114906 -0.0185260462327 0.00515667107019
1.149 -0.0186858084071 0.00506078117732 0.179811261935 -0.969133447378 0.179806809798 -0.969132533199 -0.0187083316749 0.00515184133376
1.15 -0.0188685620411 0.00505621541768 0.178620783397 -0.969338390183 0.178616335008 -0.969337463233 -0.0188909950459 0.00514739890435
1.151 -0.0190516930524 0.00505203871597 0.177430007553 -0.969541843943 0.177425563226 -0.969540904244 -0.0190740355295 0.00514334518658
1.152 -0.0192352006189 0.00504825247503 0.176238936261 -0.969743807899 0.17623449631 -0.969742855473 -0.0192574523048 0.00513968158318
1.153 -0.019419083914 0.00504485809573 0.175047571382 -0.969944281292 0.175043136116 -0.969943316164 -0.0194412445465 0.00513640949493
1.154 -0.0196033421066 0.005041856977 0.17385591478 -0.970143263366 0.173851484506 -0.970142285562 -0.0196254114247 0.00513353032064
1.155 -0.0197879743612 0.0050392505158 0.172663968321 -0.970340753367 0.172659543344 -0.970339762915 -0.0198099521051 0.00513104545717
1.156 -0.0199729798375 0.0050370401071 0.171471733874 -0.970536750545 0.171467314496 -0.970535747474 -0.0199948657489 0.00512895629942
1.157 -0.0201583576912 0.00503522714388 0.17027921331 -0.970731254153 0.170274799832 -0.970730238491 -0.0201801515128 0.00512726424027
1.158 -0.0203441070731 0.00503381301712 0.169086408504 -0.970924263443 0.169082001224 -0.970923235223 -0.0203658085491 0.00512597067061
1.159 -0.0205302271298 0.00503279911576 0.167893321335 -0.971115777674 0.167888920546 -0.971114736927 -0.0205518360055 0.00512507697932
1.16 -0.0207167170034 0.00503218682674 0.166699953681 -0.971305796105 0.166695559678 -0.971304742864 -0.0207382330253 0.00512458455324
1.161 -0.0209035758316 0.00503197753492 0.165506307426 -0.971494317998 0.165501920499 -0.971493252299 -0.0209249987473 0.00512449477717
1.162 -0.0210908027474 0.00503217262313 0.164312384456 -0.971681342617 0.164308004892 -0.971680264497 -0.0211121323061 0.00512480903387
1.163 -0.0212783968796 0.00503277347211 0.163118186659 -0.971866869231 0.163113814744 -0.971865778726 -0.0212996328315 0.00512552870402
1.164 -0.0214663573525 0.00503378146053 0.161923715926 -0.97205089711 0.161919351943 -0.972049794257 -0.021487499449 0.00512665516623
1.165 -0.0216546832861 0.00503519796495 0.160728974151 -0.972233425525 0.160724618382 -0.972232310366 -0.0216757312798 0.00512818979701
1.166 -0.0218433737958 0.00503702435985 0.159533963232 -0.972414453753 0.159529615954 -0.972413326327 -0.0218643274405 0.00513013397077
1.167 -0.0220324279926 0.00503926201757 0.158338685068 -0.972593981071 0.158334346556 -0.972592841421 -0.0220532870435 0.00513248905981
1.168 -0.0222218449832 0.00504191230831 0.15714314156 -0.97277200676 0.15713881209 -0.972770854929 -0.0222426091964 0.00513525643428
1.169 -0.0224116238698 0.00504497660014 0.155947334615 -0.972948530103 0.155943014456 -0.972947366136 -0.0224322930028 0.00513843746223
1.17 -0.0226017637504 0.00504845625897 0.154751266139 -0.973123550387 0.154746955561 -0.973122374328 -0.0226223375618 0.00514203350951
1.171 -0.0227922637183 0.00505235264854 0.153554938043 -0.9732970669 0.153550637312 -0.973295878795 -0.0228127419679 0.00514604593982
1.172 -0.0229831228627 0.0050566671304 0.152358352241 -0.973469078933 0.152354061621 -0.973467878831 -0.0230035053115 0.00515047611471
1.173 -0.0231743402683 0.00506140106392 0.151161510648 -0.973639585781 0.1511572304 -0.97363837373 -0.0231946266783 0.00515532539349
1.174 -0.0233659150154 0.00506655580626 0.149964415183 -0.973808586741 0.149960145567 -0.97380736279 -0.0233861051501 0.00516059513331
1.175 -0.0235578461801 0.00507213271235 0.148767067768 -0.973976081111 0.14876280904 -0.973974845311 -0.0235779398038 0.00516628668907
1.176 -0.023750132834 0.00507813313489 0.147569470325 -0.974142068195 0.147565222742 -0.974140820598 -0.0237701297123 0.00517240141348
1.177 -0.0239427740443 0.00508455842437 0.146371624784 -0.974306547298 0.146367388596 -0.974305287957 -0.023962673944 0.00517894065697
1.178 -0.024135768874 0.00509140992897 0.145173533072 -0.974469517727 0.145169308529 -0.974468246696 -0.0241555715631 0.00518590576776
1.179 -0.0243291163818 0.00509868899466 0.143975197122 -0.974630978793 0.143970984472 -0.974629696126 -0.0243488216292 0.00519329809176
1.18 -0.0245228156219 0.00510639696508 0.142776618869 -0.974790929809 0.142772418357 -0.974789635563 -0.0245424231978 0.00520111897264
1.181 -0.0247168656443 0.00511453518162 0.14157780025 -0.974949370092 0.141573612119 -0.974948064324 -0.0247363753201 0.00520936975177
1.182 -0.0249112654947 0.00512310498333 0.140378743206 -0.975106298961 0.140374567697 -0.975104981728 -0.0249306770426 0.00521805176822
1.183 -0.0251060142144 0.00513210770699 0.13917944968 -0.975261715737 0.13917528703 -0.975260387099 -0.0251253274081 0.00522716635874
1.184 -0.0253011108404 0.005141544687 0.137979921617 -0.975415619746 0.137975772062 -0.975414279761 -0.0253203254545 0.00523671485777
1.185 -0.0254965544055 0.00515141725547 0.136780160966 -0.975568010315 0.13677602474 -0.975566659044 -0.0255156702158 0.0052466985974
1.186 -0.0256923439382 0.00516172674212 0.135580169677 -0.975718886773 0.135576047012 -0.975717524279 -0.0257113607215 0.00525711890738
1.187 -0.0258884784627 0.00517247447433 0.134379949705 -0.975868248455 0.134375840828 -0.9758668748 -0.0259073959969 0.0052679771151
1.188 -0.0260849569988 0.00518366177711 0.133179503005 -0.976016094696 0.133175408144 -0.976014709944 -0.026103775063 0.00527927454557
1.189 -0.0262817785622 0.00519528997306 0.131978831536 -0.976162424836 0.131974750916 -0.97616102905 -0.0263004969365 0.00529101252143
1.19 -0.0264789421643 0.00520736038239 0.130777937261 -0.976307238216 0.130773871102 -0.976305831462 -0.0264975606299 0.00530319236291
1.191 -0.0266764468123 0.00521987432291 0.129576822143 -0.97645053418 0.129572770666 -0.976449116525 -0.0266949651515 0.00531581538783
1.192 -0.0268742915089 0.00523283311001 0.128375488149 -0.976592312077 0.128371451572 -0.976590883588 -0.026892709505 0.00532888291161
1.193 -0.0270724752529 0.00524623805663 0.127173937249 -0.976732571257 0.127169915786 -0.976731132001 -0.0270907926904 0.00534239624722
1.194 -0.0272709970387 0.00526009047328 0.125972171415 -0.976871311074 0.125968165279 -0.97686986112 -0.0272892137029 0.0053563567052
1.195 -0.0274698558564 0.005274391668 0.124770192621 -0.977008530883 0.124766202024 -0.977007070301 -0.027487971534 0.00537076559363
1.196 -0.027669050692 0.00528914294637 0.123568002846 -0.977144230045 0.123564027994 -0.977142758904 -0.0276870651705 0.00538562421811
1.197 -0.0278685805273 0.00530434561148 0.122365604068 -0.977278407921 0.122361645169 -0.977276926294 -0.0278864935953 0.00540093388178
1.198 -0.0280684443399 0.00532000096395 0.121162998271 -0.977411063877 0.121159055529 -0.977409571835 -0.0280862557869 0.00541669588529
1.199 -0.0282686411029 0.00533611030188 0.11996018744 -0.97754219728 0.119956261056 -0.977540694897 -0.0282863507198 0.00543291152678
1.2 -0.0284691697857 0.00535267492085 0.118757173562 -0.977671807503 0.118753263736 -0.977670294851 -0.0284867773642 0.00544958210187
1.201 -0.0286700293532 0.00536969611392 0.117553958629 -0.977799893919 0.117550065557 -0.977798371074 -0.0286875346859 0.00546670890368
1.202 -0.0288712187662 0.00538717517162 0.116350544633 -0.977926455905 0.11634666851 -0.977924922941 -0.0288886216469 0.00548429322277
1.203 -0.0290727369814 0.00540511338191 0.115146933569 -0.978051492842 0.115143074589 -0.978049949836 -0.0290900372048 0.00550233634717
1.204 -0.029274582951 0.00542351203022 0.113943127436 -0.978175004114 0.113939285789 -0.978173451141 -0.029291780313 0.00552083956233
1.205 -0.0294767556236 0.00544237239938 0.112739128235 -0.978296989105 0.112735304108 -0.978295426243 -0.0294938499209 0.00553980415115
1.206 -0.0296792539432 0.00546169576965 0.111534937968 -0.978417447205 0.111531131549 -0.978415874533 -0.0296962449735 0.00555923139393
1.207 -0.0298820768499 0.00548148341869 0.110330558643 -0.978536377807 0.110326770114 -0.978534795404 -0.029898964412 0.0055791225684
1.208 -0.0300852232795 0.00550173662155 0.109125992266 -0.978653780307 0.10912222181 -0.978652188251 -0.0301020071731 0.00559947894965
1.209 -0.0302886921638 0.00552245665067 0.10792124085 -0.978769654102 0.107917488646 -0.978768052473 -0.0303053721897 0.00562030181019
1.21 -0.0304924824303 0.00554364477586 0.106716306407 -0.978883998594 0.106712572632 -0.978882387474 -0.0305090583902 0.00564159241989
1.211 -0.0306965930027 0.00556530226428 0.105511190954 -0.978996813188 0.105507475783 -0.978995192658 -0.0307130646992 0.00566335204596
1.212 -0.0309010228004 0.00558743038045 0.104305896509 -0.979108097291 0.104302200116 -0.979106467433 -0.0309173900371 0.00568558195298
1.213 -0.0311057707385 0.00561003038622 0.103100425093 -0.979217850314 0.103096747649 -0.979216211212 -0.0311220333201 0.00570828340288
1.214 -0.0313108357284 0.00563310354077 0.101894778731 -0.979326071672 0.101891120403 -0.979324423408 -0.0313269934604 0.00573145765488
1.215 -0.0315162166772 0.00565665110059 0.100688959448 -0.979432760781 0.100685320403 -0.97943110344 -0.0315322693661 0.00575510596556
1.216 -0.0317219124879 0.00568067431948 0.099482969273 -0.979537917061 0.0994793496752 -0.979536250728 -0.0317378599411 0.00577922958876
1.217 -0.0319279220596 0.00570517444853 0.098276810237 -0.979641539937 0.0982732102486 -0.979639864695 -0.0319437640854 0.00580382977565
1.218 -0.032134244287 0.0057301527361 0.0970704843738 -0.979743628833 0.0970669041549 -0.97974194477 -0.0321499806949 0.00582890777467
1.219 -0.0323408780611 0.00575561042783 0.0958639937196 -0.979844183181 0.0958604334279 -0.979842490383 -0.0323565086613 0.00585446483151
1.22 -0.0325478222687 0.00578154876663 0.0946573403131 -0.979943202412 0.0946538001043 -0.979941500966 -0.0325633468723 0.00588050218916
1.221 -0.0327550757926 0.00580796899263 0.0934505261954 -0.980040685963 0.0934470062232 -0.980038975956 -0.0327704942118 0.00590702108782
1.222 -0.0329626375115 0.00583487234323 0.0922435534102 -0.980136633273 0.092240053826 -0.980134914794 -0.0329779495592 0.00593402276495
1.223 -0.0331705063 0.00586226005303 0.0910364240036 -0.980231043784 0.0910329449566 -0.980229316922 -0.0331857117902 0.00596150845523
1.224 -0.033378681029 0.00589013335385 0.0898291400241 -0.980323916943 0.0898256816617 -0.980322181786 -0.0333937797764 0.00598947939056
1.225 -0.033587160565 0.00591849347472 0.0886217035228 -0.980415252197 0.0886182659901 -0.980413508835 -0.0336021523854 0.00601793680004
1.226 -0.0337959437707 0.00594734164186 0.0874141165532 -0.980505048999 0.0874106999933 -0.980503297523 -0.0338108284808 0.00604688190996
1.227 -0.0340050295048 0.00597667907867 0.0862063811712 -0.980593306805 0.086202985725 -0.980591547305 -0.034019806922 0.0060763159438
1.228 -0.034214416622 0.00600650700573 0.0849984994352 -0.980680025072 0.0849951252415 -0.98067825764 -0.0342290865647 0.0061062401222
1.229 -0.0344241039729 0.00603682664076 0.083790473406 -0.980765203263 0.0837871206017 -0.98076342799 -0.0344386662604 0.00613665566298
1.23 -0.0346340904042 0.00606763919866 0.0825823051469 -0.980848840843 0.0825789738666 -0.980847057821 -0.0346485448567 0.0061675637811
1.231 -0.0348443747588 0.00609894589143 0.0813739967236 -0.98093093728 0.0813706870999 -0.980929146602 -0.0348587211973 0.00619896568864
1.232 -0.0350549558754 0.00613074792823 0.080165550204 -0.981011492045 0.0801622623676 -0.981009693805 -0.0350691941218 0.00623086259484
1.233 -0.0352658325889 0.00616304651533 0.0789569676588 -0.981090504614 0.0789537017382 -0.981088698905 -0.0352799624659 0.00626325570603
1.234 -0.03547700373 0.00619584285608 0.0777482511607 -0.981167974465 0.0777450072824 -0.981166161381 -0.0354910250613 0.00629614622567
1.235 -0.0356884681259 0.00622913815096 0.0765394027852 -0.98124390108 0.0765361810736 -0.981242080715 -0.0357023807358 0.00632953535429
1.236 -0.0359002245994 0.00626293359752 0.0753304246099 -0.981318283943 0.0753272251874 -0.981316456392 -0.0359140283133 0.00636342428953
1.237 -0.0361122719696 0.00629723039037 0.0741213187149 -0.981391122542 0.0741181417019 -0.981389287901 -0.0361259666137 0.00639781422608
1.238 -0.0363246090519 0.00633202972121 0.0729120871827 -0.98146241637 0.0729089326975 -0.981460574733 -0.0363381944531 0.0064327063557
1.239 -0.0365372346573 0.00636733277878 0.071702732098 -0.981532164921 0.071699600257 -0.981530316385 -0.0365507106435 0.00646810186722
1.24 -0.0367501475933 0.00640314074884 0.0704932555481 -0.981600367693 0.0704901464656 -0.981598512355 -0.0367635139931 0.00650400194648
1.241 -0.0369633466633 0.00643945481421 0.0692836596225 -0.981667024188 0.0692805734109 -0.981665162144 -0.0369766033062 0.00654040777638
1.242 -0.037176830667 0.00647627615473 0.0680739464131 -0.981732133911 0.0680708831827 -0.981730265258 -0.0371899773832 0.00657732053682
1.243 -0.0373905984 0.00651360594723 0.0668641180143 -0.981795696371 0.0668610778733 -0.981793821206 -0.0374036350207 0.00661474140473
1.244 -0.0376046486541 0.00655144536554 0.0656541765225 -0.981857711079 0.0656511595773 -0.981855829501 -0.0376175750112 0.006652671554
1.245 -0.0378189802174 0.0065897955805 0.0644441240368 -0.98191817755 0.0644411303918 -0.981916289657 -0.0378317961436 0.00669111215556
1.246 -0.0380335918738 0.00662865775991 0.0632339626583 -0.981977095303 0.0632309924159 -0.981975201194 -0.0380462972028 0.00673006437727
1.247 -0.0382484824038 0.00666803306854 0.0620236944907 -0.982034463861 0.0620207477512 -0.982032563633 -0.0382610769697 0.00676952938399
1.248 -0.0384636505837 0.00670792266811 0.0608133216398 -0.982090282748 0.0608103985018 -0.982088376502 -0.0384761342217 0.00680950833752
1.249 -0.038679095186 0.00674832771731 0.0596028462139 -0.982144551494 0.0595999467738 -0.982142639328 -0.0386914677321 0.0068500023966
1.25 -0.0388948149796 0.00678924937173 0.0583922703234 -0.982197269631 0.0583893946758 -0.982195351645 -0.0389070762704 0.00689101271692
1.251 -0.0391108087295 0.00683068878392 0.0571815960811 -0.982248436695 0.0571787443187 -0.982246512989 -0.0391229586024 0.00693254045109
1.252 -0.0393270751966 0.00687264710332 0.055970825602 -0.982298052226 0.0559679978155 -0.9822961229 -0.0393391134899 0.00697458674863
1.253 -0.0395436131384 0.00691512547628 0.0547599610036 -0.982346115765 0.0547571572817 -0.98234418092 -0.0395555396911 0.00701715275596
1.254 -0.0397604213083 0.00695812504606 0.0535490044055 -0.98239262686 0.053546224835 -0.982390686596 -0.0397722359602 0.00706023961641
1.255 -0.0399774984562 0.00700164695277 0.0523379579295 -0.982437585059 0.0523352025953 -0.982435639478 -0.0399892010479 0.00710384847017
1.256 -0.040194843328 0.00704569233342 0.0511268236998 -0.982480989918 0.051124092685 -0.98247903912 -0.0402064337007 0.00714798045432
1.257 -0.0404124546658 0.00709026232187 0.0499156038427 -0.982522840992 0.0499128972284 -0.982520885079 -0.0404239326616 0.00719263670279
1.258 -0.0406303312082 0.00713535804884 0.048704300487 -0.982563137841 0.0487016183524 -0.982561176915 -0.0406416966699 0.00723781834636
1.259 -0.0408484716898 0.0071809806419 0.0474929157634 -0.98260188003 0.0474902581859 -0.982599914192 -0.0408597244609 0.00728352651266
1.26 -0.0410668748414 0.00722713122541 0.0462814518052 -0.982639067126 0.0462788188602 -0.982637096479 -0.0410780147662 0.00732976232615
1.261 -0.0412855393903 0.0072738109206 0.0450699107475 -0.9826746987 0.0450673025086 -0.982672723345 -0.0412965663139 0.00737652690811
1.262 -0.0415044640599 0.00732102084549 0.043858294728 -0.982708774327 0.0438557112669 -0.982706794367 -0.041515377828 0.00742382137661
1.263 -0.04172364757 0.00736876211489 0.0426466058864 -0.982741293584 0.042644047273 -0.982739309122 -0.0417344480291 0.00747164684655
1.264 -0.0419430886365 0.00741703584042 0.0414348463646 -0.982772256054 0.0414323126669 -0.982770267192 -0.0419537756339 0.00752000442959
1.265 -0.0421627859718 0.00746584313047 0.0402230183068 -0.982801661322 0.0402205095909 -0.982799668163 -0.0421733593553 0.00756889523419
1.266 -0.0423827382844 0.00751518509018 0.0390111238592 -0.982829508976 0.0390086401895 -0.982827511624 -0.0423931979026 0.00761832036557
1.267 -0.0426029442792 0.0075650628215 0.0377991651705 -0.982855798609 0.0377967066094 -0.982853797167 -0.0426132899816 0.00766828092571
1.268 -0.0428234026574 0.00761547742307 0.0365871443912 -0.982880529818 0.0365847109994 -0.982878524388 -0.042833634294 0.00771877801334
1.269 -0.0430441121166 0.0076664299903 0.0353750636743 -0.982903702201 0.0353726555106 -0.982901692888 -0.0430542295382 0.00776981272391
1.27 -0.0432650713506 0.00771792161534 0.0341629251746 -0.982925315363 0.034160542296 -0.982923302269 -0.0432750744087 0.00782138614962
1.271 -0.0434862790496 0.00776995338703 0.0329507310493 -0.982945368911 0.0329483735111 -0.98294335214 -0.0434961675963 0.00787349937937
1.272 -0.0437077339002 0.00782252639093 0.0317384834577 -0.982963862454 0.0317361513133 -0.982961842111 -0.0437175077884 0.00792615349879
1.273 -0.0439294345852 0.00787564170931 0.0305261845613 -0.982980795608 0.0305238778623 -0.982978771796 -0.0439390936685 0.00797934959017
1.274 -0.0441513797839 0.0079293004211 0.0293138365234 -0.982996167991 0.0293115553197 -0.982994140813 -0.0441609239165 0.00803308873253
1.275 -0.0443735681719 0.00798350360194 0.0281014415098 -0.983009979224 0.0280991858494 -0.983007948784 -0.0443829972088 0.00808737200152
1.276 -0.0445959984212 0.00803825232411 0.0268890016883 -0.983022228932 0.0268867716175 -0.983020195335 -0.044605312218 0.0081422004695
1.277 -0.0448186692003 0.00809354765657 0.0256765192287 -0.983032916744 0.0256743147921 -0.983030880095 -0.0448278676131 0.00819757520545
1.278 -0.0450415791738 0.0081493906649 0.0244639963029 -0.983042042295 0.0244618175432 -0.983040002696 -0.0450506620597 0.00825349727502
1.279 -0.0452647270029 0.00820578241135 0.0232514350849 -0.983049605218 0.0232492820433 -0.983047562775 -0.0452736942196 0.00830996774048
1.28 -0.0454881113453 0.00826272395477 0.022038837751 -0.983055605157 0.0220367104666 -0.983053559972 -0.0454969627509 0.00836698766074
1.281 -0.045711730855 0.00832021635064 0.0208262064793 -0.983060041753 0.0208241049897 -0.983057993932 -0.0457204663085 0.00842455809131
1.282 -0.0459355841822 0.00837826065104 0.01961354345 -0.983062914654 0.0196114677911 -0.983060864302 -0.0459442035433 0.00848268008432
1.283 -0.0461596699741 0.00843685790466 0.0184008508454 -0.983064223513 0.0183988010513 -0.983062170733 -0.0461681731029 0.00854135468848
1.284 -0.0463839868737 0.00849600915677 0.0171881308499 -0.983063967984 0.0171861069529 -0.98306191288 -0.0463923736312 0.0086005829491
1.285 -0.0466085335209 0.00855571544921 0.0159753856499 -0.983062147727 0.0159733876808 -0.983060090403 -0.0466168037686 0.00866036590805
1.286 -0.0468333085518 0.00861597782039 0.0147626174337 -0.983058762403 0.0147606454215 -0.983056702965 -0.046841462152 0.00872070460378
1.287 -0.0470583105992 0.00867679730528 0.0135498283919 -0.98305381168 0.0135478823638 -0.983051750231 -0.0470663474147 0.00878160007128
1.288 -0.0472835382922 0.0087381749354 0.0123370207168 -0.983047295228 0.0123351006985 -0.983045231872 -0.0472914581864 0.0088430533421
1.289 -0.0475089902564 0.00880011173881 0.0111241966029 -0.98303921272 0.0111223026183 -0.983037147562 -0.0475167930935 0.00890506544432
1.29 -0.0477346651138 0.00886260874007 0.00991135824676 -0.983029563836 0.00990949031815 -0.983027496979 -0.0477423507586 0.00896763740254
1.291 -0.0479605614832 0.00892566696029 0.00869850784669 -0.983018348256 0.00869666599468 -0.983016279804 -0.047968129801 0.00903077023788
1.292 -0.0481866779797 0.00898928741708 0.00748564760316 -0.983005565666 0.00748383184671 -0.983003495724 -0.0481941288364 0.00909446496797
1.293 -0.0484130132148 0.00905347112453 0.00627277971857 -0.982991215756 0.00627099007498 -0.982989144427 -0.0484203464771 0.00915872260691
1.294 -0.0486395657967 0.00911821909323 0.00505990639726 -0.982975298218 0.00505814288222 -0.982973225606 -0.0486467813318 0.00922354416532
1.295 -0.0488663343301 0.00918353233025 0.00384702984556 -0.98295781275 0.0038452924731 -0.982955738959 -0.0488734320059 0.00928893065027
1.296 -0.0490933174162 0.00924941183913 0.00263415227172 -0.982938759053 0.00263244105425 -0.982936684187 -0.0491002971012 0.00935488306532
1.297 -0.0493205136528 0.00931585861985 0.00142127588595 -0.982918136831 0.00141959083428 -0.982916060994 -0.049327375216 0.00942140241045
1.298 -0.0495479216342 0.00938287366885 0.000208402900373 -0.982895945793 0.000206744023685 -0.982893869088 -0.0495546649453 0.00948848968211
1.299 -0.0497755399513 0.00945045797901 -0.00100446447095 -0.982872185652 -0.00100609716507 -0.982870108182 -0.0497821648805 0.00955614587319
1.3 -0.0500033671915 0.00951861253963 -0.00221732401207 -0.982846856125 -0.00221893051763 -0.982844777993 -0.0500098736098 0.00962437197298
1.301 -0.0502314019388 0.00958733833645 -0.0034301735051 -0.982819956931 -0.00343175381769 -0.982817878241 -0.0502377897177 0.00969316896723
1.302 -0.050459642774 0.00965663635158 -0.00464301073028 -0.982791487795 -0.00464456484708 -0.98278940865 -0.0504659117855 0.00976253783804
1.303 -0.0506880882741 0.00972650756356 -0.00585583346595 -0.982761448445 -0.00585736138572 -0.982759368947 -0.0506942383909 0.00983247956395
1.304 -0.0509167370131 0.0097969529473 -0.0070686394886 -0.982729838613 -0.00707014121163 -0.982727758865 -0.0509227681084 0.00990299511987
1.305 -0.0511455875613 0.00986797347411 -0.0082814265728 -0.982696658035 -0.00828290210098 -0.98269457814 -0.0511514995091 0.00997408547708
1.306 -0.0513746384858 0.00993957011165 -0.00949419249131 -0.982661906451 -0.00949564182804 -0.982659826512 -0.0513804311605 0.0100457516032
1.307 -0.0516038883504 0.0100117438239 -0.010706935015 -0.982625583606 -0.0107083581653 -0.982623503723 -0.0516095616269 0.0101179944624
1.308 -0.0518333357152 0.0100844955714 -0.0119196519129 -0.982587689246 -0.0119210488832 -0.982585609523 -0.0518388894692 0.0101908150148
1.309 -0.0520629791373 0.0101578263106 -0.0131323409523 -0.982548223124 -0.0131337117506 -0.982546143663 -0.052068413245 0.0102642142173
1.31 -0.0522928171704 0.0102317369948 -0.0143449998984 -0.982507184996 -0.0143463445343 -0.982505105898 -0.0522981315084 0.0103381930227
1.311 -0.0525228483646 0.0103062285732 -0.015557626515 -0.982464574622 -0.0155589449994 -0.982462495988 -0.0525280428103 0.0104127523806
1.312 -0.052753071267 0.0103813019915 -0.0167702185636 -0.982420391764 -0.0167715109093 -0.982418313697 -0.0527581456983 0.0104878932365
1.313 -0.0529834844212 0.0104569581918 -0.0179827738044 -0.982374636192 -0.0179840400252 -0.982372558792 -0.0529884387166 0.0105636165323
1.314 -0.0532140863675 0.0105331981122 -0.0191952899954 -0.982327307677 -0.019196530107 -0.982325231045 -0.053218920406 0.0106399232064
1.315 -0.0534448756429 0.0106100226874 -0.020407764893 -0.982278405995 -0.0204089789124 -0.982276330231 -0.0534495893041 0.0107168141932
1.316 -0.0536758507812 0.010687432848 -0.0216201962519 -0.982227930925 -0.0216213841976 -0.98222585613 -0.0536804439453 0.0107942904235
1.317 -0.0539070103128 0.0107654295213 -0.0228325818249 -0.982175882251 -0.0228337437168 -0.982173808526 -0.0539114828605 0.0108723528243
1.318 -0.0541383527649 0.0108440136306 -0.0240449193631 -0.982122259762 -0.0240460552226 -0.982120187206 -0.0541427045774 0.0109510023189
1.319 -0.0543698766613 0.0109231860954 -0.0252572066158 -0.98206706325 -0.0252583164658 -0.982064991963 -0.0543741076205 0.011030239827
1.32 -0.0546015805228 0.0110029478315 -0.0264694413307 -0.982010292509 -0.0264705251955 -0.982008222591 -0.054605690511 0.0111100662641
1.321 -0.0548334628666 0.011083299751 -0.0276816212537 -0.981951947342 -0.0276826791589 -0.981949878891 -0.0548374517668 0.0111904825423
1.322 -0.055065522207 0.0111642427622 -0.0288937441288 -0.98189202755 -0.0288947761018 -0.981889960666 -0.0550693899026 0.0112714895699
1.323 -0.0552977570548 0.0112457777694 -0.0301058076987 -0.981830532944 -0.0301068137679 -0.981828467726 -0.0553015034299 0.0113530882511
1.324 -0.0555301659177 0.0113279056733 -0.031317809704 -0.981767463335 -0.0313187898995 -0.98176539988 -0.0555337908569 0.0114352794866
1.325 -0.0557627473002 0.0114106273707 -0.0325297478839 -0.981702818539 -0.032530702237 -0.981700756947 -0.0557662506886 0.0115180641731
1.326 -0.0559954997036 0.0114939437547 -0.0337416199757 -0.981636598378 -0.0337425485192 -0.981634538745 -0.0559988814267 0.0116014432036
1.327 -0.0562284216258 0.0115778557144 -0.0349534237152 -0.981568802675 -0.0349543264832 -0.9815667451 -0.05623168157 0.0116854174672
1.328 -0.0564615115617 0.0116623641352 -0.0361651568364 -0.98149943126 -0.0361660338646 -0.98149737584 -0.0564646496137 0.0117699878491
1.329 -0.0566947680031 0.0117474698984 -0.0373768170717 -0.981428483965 -0.037377668397 -0.981426430796 -0.0566977840501 0.0118551552307
1.33 -0.0569281894384 0.0118331738818 -0.038588402152 -0.981355960627 -0.0385892278126 -0.981353909807 -0.0569310833683 0.0119409204896
1.331 -0.057161774353 0.011919476959 -0.0397999098063 -0.981281861088 -0.0398007098419 -0.981279812713 -0.057164546054 0.0120272844994
1.332 -0.0573955212291 0.0120063799999 -0.0410113377623 -0.981206185192 -0.0410121122138 -0.981204139358 -0.0573981705901 0.0121142481298
1.333 -0.0576294285456 0.0120938838704 -0.0422226837457 -0.98112893279 -0.0422234326555 -0.981126889592 -0.0576319554562 0.0122018122468
1.334 -0.0578634947785 0.0121819894327 -0.043433945481 -0.981050103734 -0.0434346688927 -0.981048063268 -0.0578658991285 0.0122899777123
1.335 -0.0580977184006 0.0122706975448 -0.0446451206907 -0.980969697883 -0.0446458186493 -0.980967660244 -0.0581000000804 0.0123787453844
1.336 -0.0583320978815 0.0123600090609 -0.0458562070961 -0.980887715098 -0.0458568796479 -0.980885680381 -0.0583342567822 0.0124681161171
1.337 -0.0585666316878 0.0124499248315 -0.0470672024168 -0.980804155246 -0.0470678496093 -0.980802123545 -0.0585686677008 0.0125580907608
1.338 -0.0588013182828 0.0125404457027 -0.0482781043705 -0.980719018197 -0.0482787262528 -0.980716989605 -0.0588032313002 0.0126486701615
1.339 -0.0590361561269 0.0126315725171 -0.0494889106739 -0.980632303825 -0.049489507296 -0.980630278437 -0.0590379460413 0.0127398551617
1.34 -0.0592711436774 0.012723306113 -0.0506996190419 -0.980544012009 -0.0507001904553 -0.980541989918 -0.0592728103818 0.0128316465997
1.341 -0.0595062793884 0.012815647325 -0.0519102271876 -0.980454142633 -0.0519107734451 -0.980452123932 -0.0595078227765 0.0129240453098
1.342 -0.059741561711 0.0129085969835 -0.0531207328231 -0.980362695583 -0.0531212539787 -0.980360680364 -0.0597429816769 0.0130170521224
1.343 -0.0599769890933 0.013002155915 -0.0543311336586 -0.98026967075 -0.0543316297675 -0.980267659105 -0.0599782855316 0.0131106678638
1.344 -0.0602125599804 0.013096324942 -0.0555414274029 -0.980175068031 -0.0555418985217 -0.980173060052 -0.0602137327862 0.0132048933566
1.345 -0.060448272814 0.0131911048831 -0.0567516117634 -0.980078887324 -0.0567520579497 -0.980076883103 -0.0604493218831 0.0132997294191
1.346 -0.0606841260332 0.0132864965528 -0.0579616844458 -0.979981128536 -0.0579621057587 -0.979979128163 -0.0606850512618 0.0133951768655
1.347 -0.0609201180739 0.0133825007614 -0.0591716431545 -0.979881791572 -0.0591720396543 -0.979879795139 -0.0609209193586 0.0134912365064
1.348 -0.061156247369 0.0134791183155 -0.0603814855924 -0.979780876348 -0.0603818573405 -0.979778883943 -0.0611569246071 0.0135879091479
1.349 -0.0613925123483 0.0135763500173 -0.061591209461 -0.979678382778 -0.06159155652 -0.979676394492 -0.0613930654375 0.0136851955922
1.35 -0.0616289114387 0.0136741966653 -0.0628008124602 -0.979574310785 -0.0628011348939 -0.979572326707 -0.0616293402772 0.0137830966377
1.351 -0.0618654430642 0.0137726590536 -0.0640102922886 -0.979468660293 -0.0640105901621 -0.979466680513 -0.0618657475508 0.0138816130783
1.352 -0.0621021056456 0.0138717379725 -0.0652196466433 -0.979361431234 -0.0652199200228 -0.979359455839 -0.0621022856796 0.0139807457042
1.353 -0.062338897601 0.0139714342081 -0.06642887322 -0.97925262354 -0.066429122173 -0.979250652619 -0.0623389530821 0.0140804953013
1.354 -0.0625758173452 0.0140717485423 -0.0676379697131 -0.979142237151 -0.0676381943081 -0.97914027079 -0.0625757481738 0.0141808626515
1.355 -0.0628128632904 0.0141726817532 -0.0688469338155 -0.979030272008 -0.0688471341222 -0.979028310296 -0.0628126693672 0.0142818485324
1.356 -0.0630500338457 0.0142742346144 -0.0700557632186 -0.978916728059 -0.070055939308 -0.978914771082 -0.0630497150721 0.0143834537178
1.357 -0.0632873274173 0.0143764078957 -0.0712644556127 -0.978801605256 -0.0712646075568 -0.9787996531 -0.063286883695 0.0144856789772
1.358 -0.0635247424083 0.0144792023626 -0.0724730086866 -0.978684903553 -0.0724731365585 -0.978682956304 -0.0635241736397 0.0145885250759
1.359 -0.0637622772192 0.0145826187765 -0.0736814201278 -0.978566622912 -0.0736815240017 -0.978564680655 -0.0637615833071 0.0146919927752
1.36 -0.0639999302474 0.0146866578947 -0.0748896876222 -0.978446763295 -0.0748897675737 -0.978444826116 -0.0639991110951 0.0147960828322
1.361 -0.0642376998874 0.0147913204703 -0.0760978088547 -0.978325324673 -0.0760978649603 -0.978323392656 -0.0642367553988 0.0149007959998
1.362 -0.0644755845309 0.0148966072522 -0.0773057815088 -0.978202307019 -0.0773058138461 -0.978200380247 -0.0644745146103 0.0150061330267
1.363 -0.0647135825667 0.0150025189851 -0.0785136032666 -0.978077710309 -0.0785136119143 -0.978075788866 -0.064712387119 0.0151120946575
1.364 -0.0649516923807 0.0151090564097 -0.0797212718089 -0.977951534525 -0.0797212568468 -0.977949618494 -0.0649503713113 0.0152186816327
1.365 -0.0651899123559 0.0152162202623 -0.0809287848154 -0.977823779654 -0.0809287463244 -0.977821869118 -0.0651884655706 0.0153258946884
1.366 -0.0654282408726 0.015324011275 -0.0821361399642 -0.977694445687 -0.0821360780262 -0.977692540727 -0.0654266682778 0.0154337345565
1.367 -0.0656666763082 0.0154324301759 -0.0833433349323 -0.977563532618 -0.0833432496305 -0.977561633316 -0.0656649778108 0.0155422019648
1.368 -0.0659052170371 0.0155414776885 -0.0845503673957 -0.977431040447 -0.084550258814 -0.977429146884 -0.0659033925446 0.0156512976369
1.369 -0.0661438614312 0.0156511545326 -0.0857572350286 -0.977296969177 -0.0857571032523 -0.977295081434 -0.0661419108513 0.015761022292
1.37 -0.0663826078593 0.0157614614231 -0.0869639355045 -0.977161318818 -0.0869637806196 -0.977159436974 -0.0663805311006 0.0158713766452
1.371 -0.0666214546877 0.0158723990713 -0.0881704664954 -0.977024089381 -0.0881702885891 -0.977022213516 -0.0666192516589 0.0159823614073
1.372 -0.0668604002795 0.0159839681838 -0.089376825672 -0.976885280884 -0.0893766248326 -0.976883411077 -0.0668580708902 0.0160939772847
1.373 -0.0670994429954 0.016096169463 -0.090583010704 -0.976744893347 -0.0905827870207 -0.976743029677 -0.0670969871554 0.0162062249798
1.374 -0.0673385811931 0.0162090036072 -0.0917890192599 -0.976602926799 -0.0917887728229 -0.976601069343 -0.067335998813 0.0163191051905
1.375 -0.0675778132277 0.0163224713102 -0.0929948490069 -0.976459381267 -0.0929945799074 -0.976457530103 -0.0675751042183 0.0164326186105
1.376 -0.0678171374514 0.0164365732616 -0.0942004976111 -0.976314256789 -0.0942002059413 -0.976312411993 -0.0678143017243 0.0165467659291
1.377 -0.0680565522137 0.0165513101468 -0.0954059627373 -0.976167553402 -0.0954056485905 -0.976165715051 -0.0680535896809 0.0166615478314
1.378 -0.0682960558616 0.0166666826466 -0.0966112420495 -0.976019271151 -0.0966109055198 -0.976017439321 -0.0682929664354 0.0167769649981
1.379 -0.0685356467389 0.0167826914377 -0.0978163332102 -0.975869410084 -0.0978159743926 -0.97586758485 -0.0685324303324 0.0168930181056
1.38 -0.0687753231872 0.0168993371924 -0.0990212338809 -0.975717970253 -0.0990208528716 -0.97571615169 -0.0687719797138 0.0170097078261
1.381 -0.0690150835449 0.0170166205787 -0.100225941722 -0.975564951717 -0.100225538618 -0.975563139898 -0.0690116129188 0.0171270348271
1.382 -0.0692549261482 0.0171345422602 -0.101430454393 -0.975410354536 -0.101430029292 -0.975408549536 -0.0692513282838 0.0172449997721
1.383 -0.0694948493303 0.017253102896 -0.102634769552 -0.975254178777 -0.102634322553 -0.975252380668 -0.0694911241426 0.0173636033201
1.384 -0.0697348514218 0.0173723031411 -0.103838884855 -0.975096424511 -0.103838416059 -0.975094633366 -0.0697309988264 0.0174828461255
1.385 -0.0699749307507 0.0174921436459 -0.10504279796 -0.974937091813 -0.105042307466 -0.974935307704 -0.0699709506636 0.0176027288388
1.386 -0.0702150856422 0.0176126250565 -0.106246506521 -0.974776180763 -0.106245994431 -0.97477440376 -0.0702109779801 0.0177232521056
1.387 -0.0704553144189 0.0177337480146 -0.107450008192 -0.974613691444 -0.107449474609 -0.97461192162 -0.0704510790989 0.0178444165675
1.388 -0.070695615401 0.0178555131574 -0.108653300625 -0.974449623947 -0.108652745653 -0.97444786137 -0.0706912523407 0.0179662228613
1.389 -0.0709359869058 0.0179779211178 -0.109856381473 -0.974283978364 -0.109855805216 -0.974282223105 -0.0709314960233 0.0180886716198
1.39 -0.0711764272481 0.0181009725242 -0.111059248387 -0.974116754793 -0.111058650949 -0.974115006921 -0.0711718084621 0.0182117634709
1.391 -0.07141693474 0.0182246680007 -0.112261899017 -0.973947953336 -0.112261280504 -0.973946212919 -0.0714121879696 0.0183354990386
1.392 -0.0716575076912 0.0183490081666 -0.11346433101 -0.973777574102 -0.11346369153 -0.973775841208 -0.0716526328562 0.0184598789419
1.393 -0.0718981444085 0.0184739936371 -0.114666542016 -0.9736056172 -0.114665881676 -0.973603891896 -0.0718931414292 0.0185849037957
1.394 -0.0721388431966 0.0185996250228 -0.115868529681 -0.973432082748 -0.11586784859 -0.973430365101 -0.0721337119936 0.0187105742103
1.395 -0.0723796023572 0.0187259029297 -0.11707029165 -0.973256970866 -0.117069589918 -0.973255260942 -0.0723743428518 0.0188368907915
1.396 -0.0726204201896 0.0188528279597 -0.11827182557 -0.973080281679 -0.118271103306 -0.973078579543 -0.0726150323037 0.0189638541407
1.397 -0.0728612949907 0.0189804007097 -0.119473129084 -0.972902015317 -0.119472386399 -0.972900321035 -0.0728557786466 0.0190914648547
1.398 -0.0731022250546 0.0191086217725 -0.120674199834 -0.972722171914 -0.120673436841 -0.97272048555 -0.0730965801751 0.019219723526
1.399 -0.073343208673 0.0192374917361 -0.121875035465 -0.972540751611 -0.121874252276 -0.972539073228 -0.0733374351816 0.0193486307422
1.4 -0.0735842441353 0.0193670111842 -0.123075633616 -0.972357754549 -0.123074830344 -0.972356084211 -0.0735783419559 0.0194781870868
1.401 -0.073825329728 0.0194971806958 -0.124275991928 -0.972173180879 -0.124275168688 -0.972171518647 -0.073819298785 0.0196083931384
1.402 -0.0740664637353 0.0196280008455 -0.125476108041 -0.971987030751 -0.125475264947 -0.971985376688 -0.0740603039539 0.0197392494713
1.403 -0.0743076444391 0.0197594722032 -0.126675979593 -0.971799304324 -0.126675116761 -0.971797658491 -0.0743013557447 0.0198707566552
1.404 -0.0745488701186 0.0198915953344 -0.127875604222 -0.971610001761 -0.12787472177 -0.971608364217 -0.0745424524373 0.0200029152552
1.405 -0.0747901390506 0.0200243707999 -0.129074979566 -0.971419123226 -0.129074077609 -0.971417494034 -0.074783592309 0.0201357258317
1.406 -0.0750314495094 0.020157799156 -0.13027410326 -0.971226668893 -0.130273181917 -0.97122504811 -0.0750247736347 0.0202691889408
1.407 -0.0752727997669 0.0202918809543 -0.13147297294 -0.971032638937 -0.131472032329 -0.971031026622 -0.0752659946868 0.0204033051339
1.408 -0.0755141880927 0.020426616742 -0.13267158624 -0.970837033538 -0.132670626481 -0.97083542975 -0.0755072537355 0.0205380749575
1.409 -0.0757556127538 0.0205620070615 -0.133869940794 -0.970639852883 -0.133868962008 -0.970638257678 -0.0757485490483 0.0206734989541
1.41 -0.0759970720148 0.0206980524508 -0.135068034234 -0.970441097159 -0.135067036541 -0.970439510596 -0.0759898788904 0.0208095776609
1.411 -0.0762385641381 0.020834753443 -0.136265864194 -0.970240766564 -0.136264847716 -0.970239188697 -0.0762312415247 0.020946311611
1.412 -0.0764800873835 0.0209721105667 -0.137463428305 -0.970038861295 -0.137462393163 -0.97003729218 -0.0764726352116 0.0210837013327
1.413 -0.0767216400086 0.021110124346 -0.138660724197 -0.969835381556 -0.138659670514 -0.969833821248 -0.0767140582091 0.0212217473495
1.414 -0.0769632202684 0.0212487953001 -0.1398577495 -0.969630327557 -0.1398566774 -0.96962877611 -0.076955508773 0.0213604501804
1.415 -0.0772048264157 0.0213881239436 -0.141054501843 -0.96942369951 -0.141053411451 -0.969422156978 -0.0771969851566 0.0214998103397
1.416 -0.0774464567011 0.0215281107867 -0.142250978855 -0.969215497633 -0.142249870295 -0.969213964069 -0.0774384856109 0.0216398283371
1.417 -0.0776881093726 0.0216687563345 -0.143447178163 -0.969005722149 -0.143446051561 -0.969004197606 -0.0776800083846 0.0217805046775
1.418 -0.077929782676 0.0218100610877 -0.144643097396 -0.968794373286 -0.144641952878 -0.968792857814 -0.0779215517241 0.0219218398611
1.419 -0.0781714748548 0.0219520255423 -0.145838734178 -0.968581451275 -0.145837571871 -0.968579944926 -0.0781631138734 0.0220638343836
1.42 -0.0784131841502 0.0220946501893 -0.147034086137 -0.968366956353 -0.147032906167 -0.968365459177 -0.0784046930743 0.0222064887357
1.421 -0.0786549088011 0.0222379355154 -0.148229150896 -0.968150888761 -0.148227953393 -0.968149400808 -0.0786462875663 0.0223498034036
1.422 -0.078896647044 0.0223818820022 -0.149423926081 -0.967933248746 -0.149422711173 -0.967931770064 -0.0788878955865 0.0224937788687
1.423 -0.0791383971135 0.0225264901269 -0.150618409315 -0.967714036559 -0.150617177131 -0.967712567197 -0.07912951537 0.0226384156077
1.424 -0.0793801572415 0.0226717603616 -0.151812598222 -0.967493252455 -0.151811348891 -0.96749179246 -0.0793711451492 0.0227837140924
1.425 -0.0796219256579 0.0228176931741 -0.153006490424 -0.967270896695 -0.153005224077 -0.967269446114 -0.0796127831549 0.02292967479
1.426 -0.0798637005903 0.0229642890269 -0.154200083543 -0.967046969543 -0.154198800312 -0.967045528423 -0.079854427615 0.023076298163
1.427 -0.0801054802642 0.0231115483782 -0.155393375201 -0.966821471269 -0.155392075216 -0.966820039656 -0.0800960767557 0.0232235846689
1.428 -0.0803472629027 0.0232594716812 -0.156586363018 -0.966594402148 -0.156585046412 -0.966592980086 -0.0803377288007 0.0233715347606
1.429 -0.0805890467269 0.0234080593842 -0.157779044615 -0.966365762459 -0.15777771152 -0.966364349993 -0.0805793819716 0.0235201488862
1.43 -0.0808308299555 0.023557311931 -0.158971417612 -0.966135552487 -0.158970068162 -0.96613414966 -0.0808210344878 0.0236694274888
1.431 -0.0810726108051 0.0237072297604 -0.160163479628 -0.96590377252 -0.160162113955 -0.965902379374 -0.0810626845665 0.023819371007
1.432 -0.0813143874903 0.0238578133064 -0.161355228281 -0.965670422851 -0.161353846521 -0.96566903943 -0.0813043304229 0.0239699798744
1.433 -0.0815561582233 0.0240090629982 -0.16254666119 -0.965435503779 -0.162545263477 -0.965434130124 -0.0815459702698 0.0241212545197
1.434 -0.0817979212142 0.0241609792602 -0.163737775972 -0.965199015607 -0.163736362442 -0.965197651759 -0.0817876023179 0.0242731953669
1.435 -0.0820396746713 0.0243135625118 -0.164928570246 -0.964960958643 -0.164927141033 -0.964959604641 -0.0820292247761 0.0244258028351
1.436 -0.0822814168002 0.0244668131678 -0.166119041627 -0.964721333199 -0.166117596868 -0.964719989084 -0.0822708358507 0.0245790773386
1.437 -0.082523145805 0.0246207316379 -0.167309187731 -0.964480139593 -0.167307727564 -0.964478805404 -0.0825124337462 0.0247330192867
1.438 -0.0827648598872 0.0247753183272 -0.168499006176 -0.964237378147 -0.168497530736 -0.964236053921 -0.082754016665 0.0248876290841
1.439 -0.0830065572465 0.0249305736355 -0.169688494576 -0.963993049189 -0.169687004001 -0.963991734963 -0.0829955828073 0.0250429071303
1.44 -0.0832482360804 0.0250864979582 -0.170877650545 -0.963747153049 -0.170876144975 -0.963745848861 -0.0832371303713 0.02519885382
1.441 -0.0834898945845 0.0252430916854 -0.1720664717 -0.963499690064 -0.172064951272 -0.96349839595 -0.0834786575532 0.0253554695432
1.442 -0.0837315309522 0.0254003552026 -0.173254955654 -0.963250660577 -0.173253420507 -0.963249376572 -0.0837201625469 0.0255127546848
1.443 -0.0839731433748 0.0255582888902 -0.174443100021 -0.963000064932 -0.174441550294 -0.962998791071 -0.0839616435445 0.0256707096248
1.444 -0.0842147300418 0.0257168931237 -0.175630902414 -0.962747903482 -0.175629338248 -0.962746639798 -0.0842030987361 0.0258293347382
1.445 -0.0844562891406 0.0258761682738 -0.176818360447 -0.962494176581 -0.176816781981 -0.962492923108 -0.0844445263097 0.0259886303953
1.446 -0.0846978188564 0.026036114706 -0.178005471731 -0.962238884591 -0.178003879107 -0.962237641362 -0.0846859244513 0.0261485969613
1.447 -0.0849393173726 0.026196732781 -0.179192233881 -0.961982027877 -0.179190627239 -0.961980794923 -0.0849272913449 0.0263092347964
1.448 -0.0851807828708 0.0263580228547 -0.180378644507 -0.961723606809 -0.180377023989 -0.961722384162 -0.0851686251725 0.026470544256
1.449 -0.0854222135301 0.0265199852778 -0.181564701222 -0.961463621762 -0.181563066969 -0.961462409452 -0.0854099241142 0.0266325256904
1.45 -0.0856636075282 0.0266826203961 -0.182750401637 -0.961202073117 -0.182748753792 -0.961200871174 -0.0856511863483 0.0267951794448
1.451 -0.0859049630406 0.0268459285503 -0.183935743364 -0.960938961258 -0.183934082069 -0.960937769711 -0.0858924100508 0.0269585058598
1.452 -0.0861462782408 0.0270099100764 -0.185120724013 -0.960674286575 -0.18511904941 -0.960673105452 -0.086133593396 0.0271225052707
1.453 -0.0863875513005 0.0271745653051 -0.186305341195 -0.960408049462 -0.186303653429 -0.960406878791 -0.0863747345563 0.0272871780077
1.454 -0.0866287803896 0.0273398945622 -0.18748959252 -0.960140250318 -0.187487891734 -0.960139090127 -0.0866158317021 0.0274525243964
1.455 -0.0868699636757 0.0275058981685 -0.188673475599 -0.959870889548 -0.188671761937 -0.959869739862 -0.086856883002 0.0276185447569
1.456 -0.0871110993251 0.0276725764397 -0.189856988042 -0.959599967561 -0.189855261648 -0.959598828406 -0.0870978866227 0.0277852394046
1.457 -0.0873521855017 0.0278399296866 -0.191040127459 -0.959327484771 -0.191038388477 -0.959326356171 -0.0873388407289 0.0279526086498
1.458 -0.0875932203678 0.0280079582149 -0.192222891459 -0.959053441596 -0.192221140034 -0.959052323576 -0.0875797434837 0.0281206527976
1.459 -0.0878342020839 0.028176662325 -0.193405277651 -0.95877783846 -0.193403513929 -0.958776731044 -0.0878205930481 0.0282893721482
1.46 -0.0880751288086 0.0283460423126 -0.194587283646 -0.958500675792 -0.194585507772 -0.958499579002 -0.0880613875815 0.0284587669966
1.461 -0.0883159986985 0.0285160984681 -0.195768907052 -0.958221954024 -0.195767119171 -0.958220867883 -0.0883021252413 0.0286288376329
1.462 -0.0885568099087 0.0286868310769 -0.196950145478 -0.957941673596 -0.196948345737 -0.957940598124 -0.0885428041831 0.0287995843419
1.463 -0.0887975605923 0.0288582404193 -0.198130996532 -0.95765983495 -0.198129185078 -0.957658770168 -0.0887834225609 0.0289710074036
1.464 -0.0890382489008 0.0290303267705 -0.199311457825 -0.957376438534 -0.199309634803 -0.957375384463 -0.0890239785268 0.0291431070925
1.465 -0.0892788729836 0.0292030904005 -0.200491526964 -0.957091484801 -0.200489692521 -0.95709044146 -0.089264470231 0.0293158836783
1.466 -0.0895194309886 0.0293765315744 -0.201671201558 -0.95680497421 -0.201669355841 -0.956803941616 -0.0895048958222 0.0294893374255
1.467 -0.089759921062 0.0295506505519 -0.202850479215 -0.956516907222 -0.202848622372 -0.956515885394 -0.0897452534472 0.0296634685934
1.468 -0.0900003413482 0.0297254475877 -0.204029357544 -0.956227284305 -0.204027489723 -0.95622627326 -0.0899855412511 0.0298382774363
1.469 -0.0902406899897 0.0299009229314 -0.205207834154 -0.955936105932 -0.205205955501 -0.955935105686 -0.0902257573773 0.0300137642033
1.47 -0.0904809651275 0.0300770768275 -0.206385906652 -0.955643372579 -0.206384017316 -0.955642383149 -0.0904658999674 0.0301899291382
1.471 -0.0907211649009 0.030253909515 -0.207563572647 -0.955349084731 -0.207561672775 -0.955348106131 -0.0907059671616 0.0303667724798
1.472 -0.0909612874475 0.0304314212282 -0.208740829747 -0.955053242872 -0.208738919489 -0.955052275117 -0.0909459570981 0.0305442944617
1.473 -0.091201330903 0.0306096121959 -0.20991767556 -0.954755847496 -0.209915755064 -0.954754890599 -0.0911858679135 0.0307224953122
1.474 -0.0914412934019 0.0307884826419 -0.211094107696 -0.9544568991 -0.21109217711 -0.954455953074 -0.0914256977429 0.0309013752547
1.475 -0.0916811730766 0.0309680327845 -0.212270123762 -0.954156398186 -0.212268183235 -0.954155463043 -0.0916654447197 0.0310809345072
1.476 -0.0919209680582 0.0311482628371 -0.213445721366 -0.953854345259 -0.213443771048 -0.953853421011 -0.0919051069755 0.0312611732824
1.477 -0.0921606764761 0.0313291730079 -0.214620898118 -0.953550740833 -0.214618938156 -0.95354982749 -0.0921446826406 0.0314420917879
1.478 -0.0924002964578 0.0315107634997 -0.215795651625 -0.953245585424 -0.21579368217 -0.953244682996 -0.0923841698435 0.0316236902261
1.479 -0.0926398261298 0.0316930345101 -0.216969979496 -0.952938879553 -0.216968000698 -0.95293798805 -0.092623566711 0.0318059687942
1.48 -0.0928792636164 0.0318759862315 -0.21814387934 -0.952630623747 -0.218141891348 -0.952629743178 -0.0928628713687 0.0319889276841
1.481 -0.0931186070408 0.0320596188511 -0.219317348766 -0.952320818537 -0.219315351729 -0.95231994891 -0.0931020819403 0.0321725670824
1.482 -0.0933578545245 0.0322439325508 -0.220490385382 -0.95200946446 -0.220488379451 -0.952008605782 -0.0933411965481 0.0323568871706
1.483 -0.0935970041873 0.0324289275073 -0.221662986799 -0.951696562058 -0.221660972123 -0.951695714335 -0.0935802133128 0.0325418881247
1.484 -0.0938360541476 0.0326146038918 -0.222835150624 -0.951382111876 -0.222833127354 -0.951381275114 -0.0938191303536 0.0327275701156
1.485 -0.0940750025225 0.0328009618705 -0.224006874468 -0.951066114465 -0.224004842753 -0.95106528867 -0.0940579457884 0.032913933309
1.486 -0.0943138474272 0.0329880016042 -0.225178155939 -0.950748570382 -0.22517611593 -0.950747755558 -0.0942966577333 0.033100977865
1.487 -0.0945525869758 0.0331757232483 -0.226348992648 -0.950429480189 -0.226346944496 -0.950428676339 -0.094535264303 0.0332887039387
1.488 -0.0947912192806 0.0333641269531 -0.227519382205 -0.95010884445 -0.227517326059 -0.950108051578 -0.0947737636109 0.0334771116798
1.489 -0.0950297424527 0.0335532128635 -0.22868932222 -0.949786663737 -0.228687258231 -0.949785881846 -0.0950121537688 0.0336662012326
1.49 -0.0952681546017 0.0337429811189 -0.229858810303 -0.949462938627 -0.229856738621 -0.949462167717 -0.095250432887 0.0338559727363
1.491 -0.0955064538356 0.0339334318537 -0.231027844064 -0.949137669699 -0.23102576484 -0.949136909772 -0.0954885990747 0.0340464263244
1.492 -0.0957446382612 0.0341245651966 -0.232196421115 -0.94881085754 -0.2321943345 -0.948810108596 -0.0957266504392 0.0342375621254
1.493 -0.0959827059838 0.0343163812713 -0.233364539067 -0.948482502741 -0.233362445211 -0.94848176478 -0.0959645850868 0.0344293802623
1.494 -0.0962206551073 0.034508880196 -0.234532195532 -0.948152605897 -0.234530094586 -0.948151878917 -0.0962024011224 0.0346218808528
1.495 -0.0964584837343 0.0347020620833 -0.23569938812 -0.94782116761 -0.235697280235 -0.94782045161 -0.0964400966492 0.0348150640092
1.496 -0.0966961899659 0.0348959270409 -0.236866114445 -0.947488188484 -0.23686399977 -0.947487483461 -0.0966776697694 0.0350089298384
1.497 -0.0969337719021 0.0350904751707 -0.238032372118 -0.947153669131 -0.238030250805 -0.947152975082 -0.0969151185837 0.0352034784419
1.498 -0.0971712276414 0.0352857065694 -0.239198158752 -0.946817610166 -0.239196030952 -0.946816927088 -0.0971524411916 0.035398709916
1.499 -0.0974085552809 0.0354816213284 -0.24036347196 -0.94648001221 -0.240361337823 -0.946479340098 -0.097389635691 0.0355946243514
1.5 -0.0976457529166 0.0356782195335 -0.241528309356 -0.946140875889 -0.241526169033 -0.946140214737 -0.0976267001788 0.0357912218334
1.501 -0.097882818643 0.0358755012651 -0.242692668553 -0.945800201833 -0.242690522195 -0.945799551636 -0.0978636327506 0.0359885024421
1.502 -0.0981197505536 0.0360734665983 -0.243856547166 -0.945457990677 -0.243854394923 -0.945457351428 -0.0981004315004 0.0361864662518
1.503 -0.0983565467404 0.0362721156027 -0.24501994281 -0.945114243063 -0.245017784832 -0.945113614755 -0.0983370945214 0.0363851133318
1.504 -0.0985932052941 0.0364714483426 -0.246182853098 -0.944768959635 -0.246180689536 -0.94476834226 -0.0985736199053 0.0365844437457
1.505 -0.0988297243046 0.0366714648765 -0.247345275647 -0.944422141044 -0.247343106652 -0.944421534593 -0.0988100057426 0.0367844575517
1.506 -0.09906610186 0.0368721652579 -0.248507208073 -0.944073787946 -0.248505033794 -0.94407319241 -0.0990462501226 0.0369851548025
1.507 -0.0993023360476 0.0370735495345 -0.249668647991 -0.943723901001 -0.24966646858 -0.94372331637 -0.0992823511334 0.0371865355455
1.508 -0.0995384249534 0.0372756177486 -0.25082959302 -0.943372480875 -0.250827408625 -0.943371907138 -0.0995183068619 0.0373885998224
1.509 -0.0997743666622 0.0374783699372 -0.251990040775 -0.943019528237 -0.251987851548 -0.943018965384 -0.099754115394 0.0375913476697
1.51 -0.100010159258 0.0376818061316 -0.253149988875 -0.942665043764 -0.253147794965 -0.942664491782 -0.0999897748142 0.0377947791183
1.511 -0.100245800822 0.0378859263578 -0.254309434938 -0.942309028136 -0.254307236496 -0.942308487012 -0.100225283206 0.0379988941933
1.512 -0.100481289438 0.0380907306361 -0.255468376583 -0.941951482037 -0.255466173758 -0.941950951759 -0.100460638652 0.0382036929149
1.513 -0.100716623184 0.0382962189813 -0.25662681143 -0.94159240616 -0.256624604371 -0.941591886712 -0.100695839233 0.0384091752973
1.514 -0.10095180014 0.038502391403 -0.257784737097 -0.941231801198 -0.257782525955 -0.941231292566 -0.100930883029 0.0386153413493
1.515 -0.101186818384 0.0387092479048 -0.258942151207 -0.940869667852 -0.25893993613 -0.940869170022 -0.101165768119 0.0388221910744
1.516 -0.101421675994 0.0389167884853 -0.260099051379 -0.940506006828 -0.260096832518 -0.940505519783 -0.101400492582 0.0390297244702
1.517 -0.101656371044 0.039125013137 -0.261255435236 -0.940140818835 -0.261253212738 -0.940140342559 -0.101635054495 0.0392379415291
1.518 -0.101890901611 0.0393339218472 -0.2624113004 -0.93977410459 -0.262409074415 -0.939773639065 -0.101869451932 0.0394468422377
1.519 -0.102125265767 0.0395435145977 -0.263566644493 -0.939405864813 -0.26356441517 -0.939405410021 -0.10210368297 0.0396564265773
1.52 -0.102359461587 0.0397537913644 -0.264721465139 -0.939036100229 -0.264719232628 -0.939035656152 -0.102337745681 0.0398666945233
1.521 -0.102593487141 0.0399647521181 -0.265875759963 -0.938664811567 -0.265873524411 -0.938664378186 -0.10257163814 0.0400776460459
1.522 -0.102827340501 0.0401763968235 -0.26702952659 -0.938291999565 -0.267027288144 -0.938291576859 -0.102805358418 0.0402892811094
1.523 -0.103061019736 0.0403887254401 -0.268182762644 -0.937917664961 -0.268180521454 -0.93791725291 -0.103038904585 0.0405015996727
1.524 -0.103294522916 0.0406017379218 -0.269335465752 -0.937541808502 -0.269333221965 -0.937541407085 -0.103272274712 0.0407146016891
1.525 -0.103527848108 0.0408154342165 -0.270487633541 -0.937164430937 -0.270485387306 -0.937164040132 -0.103505466868 0.0409282871063
1.526 -0.10376099338 0.041029814267 -0.271639263639 -0.936785533022 -0.271637015102 -0.936785152807 -0.103738479121 0.0411426558663
1.527 -0.103993956799 0.0412448780102 -0.272790353674 -0.936405115518 -0.272788102982 -0.936404745869 -0.103971309539 0.0413577079055
1.528 -0.104226736429 0.0414606253774 -0.273940901275 -0.936023179189 -0.273938648576 -0.936022820083 -0.104203956188 0.0415734431549
1.529 -0.104459330334 0.0416770562944 -0.275090904071 -0.935639724806 -0.275088649513 -0.935639376218 -0.104436417133 0.0417898615394
1.53 -0.104691736579 0.0418941706811 -0.276240359695 -0.935254753144 -0.276238103422 -0.93525441505 -0.104668690439 0.0420069629789
1.531 -0.104923953227 0.0421119684521 -0.277389265777 -0.934868264984 -0.277387007937 -0.934867937357 -0.10490077417 0.042224747387
1.532 -0.105155978339 0.042330449516 -0.278537619949 -0.934480261111 -0.278535360687 -0.934479943926 -0.105132666388 0.0424432146721
1.533 -0.105387809976 0.0425496137761 -0.279685419844 -0.934090742316 -0.279683159307 -0.934090435545 -0.105364365158 0.0426623647369
1.534 -0.105619446199 0.0427694611297 -0.280832663097 -0.933699709393 -0.28083040143 -0.933699413009 -0.105595868538 0.0428821974781
1.535 -0.105850885067 0.0429899914687 -0.281979347341 -0.933307163143 -0.28197708469 -0.933306877119 -0.105827174591 0.0431027127872
1.536 -0.10608212464 0.043211204679 -0.283125470214 -0.932913104372 -0.283123206723 -0.932912828677 -0.106058281377 0.0433239105496
1.537 -0.106313162974 0.0434331006412 -0.28427102935 -0.93251753389 -0.284268765164 -0.932517268496 -0.106289186953 0.0435457906453
1.538 -0.106543998129 0.0436556792298 -0.285416022388 -0.932120452511 -0.285413757651 -0.932120197389 -0.10651988938 0.0437683529485
1.539 -0.106774628159 0.043878940314 -0.286560446966 -0.931721861058 -0.286558181823 -0.931721616176 -0.106750386714 0.0439915973276
1.54 -0.107005051122 0.044102883757 -0.287704300722 -0.931321760354 -0.287702035316 -0.931321525681 -0.106980677013 0.0442155236455
1.541 -0.107235265073 0.0443275094164 -0.288847581297 -0.930920151231 -0.288845315772 -0.930919926736 -0.107210758333 0.0444401317593
1.542 -0.107465268065 0.044552817144 -0.289990286333 -0.930517034524 -0.289988020832 -0.930516820173 -0.107440628729 0.0446654215202
1.543 -0.107695058153 0.0447788067859 -0.29113241347 -0.930112411073 -0.291130148136 -0.930112206834 -0.107670286258 0.0448913927739
1.544 -0.107924633391 0.0450054781826 -0.292273960352 -0.929706281723 -0.292271695327 -0.929706087563 -0.107899728973 0.0451180453603
1.545 -0.10815399183 0.0452328311687 -0.293414924623 -0.929298647326 -0.293412660049 -0.92929846321 -0.108128954928 0.0453453791135
1.546 -0.108383131524 0.045460865573 -0.294555303927 -0.928889508736 -0.294553039947 -0.92888933463 -0.108357962176 0.045573393862
1.547 -0.108612050523 0.0456895812187 -0.295695095911 -0.928478866814 -0.295692832666 -0.928478702682 -0.10858674877 0.0458020894283
1.548 -0.108840746878 0.0459189779232 -0.296834298222 -0.928066722425 -0.296832035853 -0.928066568232 -0.108815312763 0.0460314656294
1.549 -0.109069218641 0.0461490554981 -0.297972908508 -0.92765307644 -0.297970647155 -0.927652932149 -0.109043652205 0.0462615222763
1.55 -0.10929746386 0.046379813749 -0.299110924417 -0.927237929734 -0.299108664221 -0.927237795307 -0.109271765148 0.0464922591744
1.551 -0.109525480585 0.0466112524762 -0.300248343599 -0.926821283188 -0.300246084701 -0.926821158588 -0.109499649643 0.0467236761232
1.552 -0.109753266866 0.0468433714738 -0.301385163707 -0.926403137686 -0.301382906245 -0.926403022876 -0.109727303738 0.0469557729165
1.553 -0.109980820749 0.0470761705303 -0.302521382392 -0.92598349412 -0.302519126505 -0.92598338906 -0.109954725485 0.0471885493422
1.554 -0.110208140284 0.0473096494282 -0.303656997307 -0.925562353385 -0.303654743135 -0.925562258036 -0.110181912931 0.0474220051825
1.555 -0.110435223517 0.0475438079445 -0.304792006108 -0.925139716381 -0.304789753789 -0.925139630703 -0.110408864126 0.0476561402137
1.556 -0.110662068496 0.0477786458501 -0.305926406449 -0.924715584014 -0.305924156121 -0.924715507967 -0.110635577118 0.0478909542064
1.557 -0.110888673266 0.0480141629102 -0.307060195988 -0.924289957194 -0.307057947789 -0.924289890736 -0.110862049955 0.0481264469252
1.558 -0.111115035876 0.0482503588842 -0.308193372383 -0.923862836837 -0.308191126449 -0.923862779927 -0.111088280684 0.048362618129
1.559 -0.111341154369 0.0484872335255 -0.309325933292 -0.923434223862 -0.30932368976 -0.923434176458 -0.111314267351 0.0485994675709
1.56 -0.111567026792 0.0487247865818 -0.310457876376 -0.923004119196 -0.310455635383 -0.923004081255 -0.111540008005 0.0488369949981
1.561 -0.11179265119 0.048963017795 -0.311589199296 -0.922572523769 -0.311586960978 -0.922572495248 -0.111765500691 0.049075200152
1.562 -0.112018025607 0.0492019269009 -0.312719899716 -0.922139438516 -0.312717664207 -0.922139419371 -0.111990743454 0.0493140827679
1.563 -0.112243148088 0.0494415136298 -0.313849975299 -0.921704864377 -0.313847742735 -0.921704854564 -0.112215734342 0.0495536425757
1.564 -0.112468016677 0.0496817777058 -0.31497942371 -0.921268802298 -0.314977194225 -0.921268801772 -0.112440471399 0.049793879299
1.565 -0.112692629418 0.0499227188473 -0.316108242617 -0.92083125323 -0.316106016345 -0.920831261945 -0.11266495267 0.0500347926557
1.566 -0.112916984355 0.0501643367668 -0.317236429686 -0.920392218127 -0.317234206761 -0.920392236038 -0.112889176201 0.0502763823579
1.567 -0.11314107953 0.0504066311708 -0.318363982587 -0.91995169795 -0.318361763141 -0.919951725011 -0.113113140036 0.0505186481118
1.568 -0.113364912988 0.0506496017601 -0.31949089899 -0.919509693664 -0.319488683157 -0.919509729828 -0.113336842219 0.0507615896174
1.569 -0.11358848277 0.0508932482294 -0.320617176567 -0.91906620624 -0.320614964478 -0.919066251459 -0.113560280794 0.0510052065694
1.57 -0.11381178692 0.0511375702676 -0.321742812991 -0.918621236653 -0.321740604777 -0.918621290879 -0.113783453807 0.0512494986559
1.571 -0.114034823481 0.0513825675578 -0.322867805936 -0.918174785882 -0.322865601729 -0.918174849068 -0.1140063593 0.0514944655597
1.572 -0.114257590494 0.0516282397769 -0.323992153078 -0.917726854914 -0.323989953008 -0.91772692701 -0.114228995317 0.0517401069574
1.573 -0.114480086002 0.0518745865961 -0.325115852094 -0.917277444739 -0.325113656291 -0.917277525695 -0.114451359902 0.0519864225195
1.574 -0.114702308047 0.0521216076807 -0.326238900662 -0.916826556351 -0.326236709256 -0.916826646118 -0.114673451099 0.0522334119111
1.575 -0.114924254671 0.05236930269 -0.327361296462 -0.916374190752 -0.327359109582 -0.916374289278 -0.11489526695 0.0524810747908
1.576 -0.115145923917 0.0526176712771 -0.328483037177 -0.915920348945 -0.328480854951 -0.915920456181 -0.1151168055 0.0527294108117
1.577 -0.115367313825 0.0528667130897 -0.329604120487 -0.915465031941 -0.329601943043 -0.915465147835 -0.11533806479 0.0529784196206
1.578 -0.115588422439 0.053116427769 -0.330724544078 -0.915008240756 -0.330722371543 -0.915008365256 -0.115559042866 0.0532281008587
1.579 -0.115809247799 0.0533668149507 -0.331844305635 -0.914549976409 -0.331842138136 -0.914550109463 -0.115779737769 0.053478454161
1.58 -0.116029787947 0.0536178742642 -0.332963402845 -0.914090239925 -0.332961240509 -0.91409038148 -0.116000147543 0.0537294791567
1.581 -0.116250040926 0.053869605333 -0.334081833397 -0.913629032335 -0.334079676349 -0.913629182337 -0.116220270231 0.0539811754688
1.582 -0.116470004777 0.0541220077749 -0.335199594981 -0.913166354673 -0.335197443346 -0.913166513069 -0.116440103876 0.0542335427147
1.583 -0.116689677543 0.0543750812014 -0.336316685288 -0.912702207979 -0.33631453919 -0.912702374714 -0.116659646523 0.0544865805054
1.584 -0.116909057264 0.0546288252181 -0.337433102012 -0.912236593297 -0.337430961576 -0.912236768318 -0.116878896213 0.0547402884463
1.585 -0.117128141983 0.0548832394247 -0.338548842847 -0.911769511679 -0.338546708195 -0.911769694929 -0.11709785099 0.0549946661365
1.586 -0.117346929743 0.0551383234148 -0.339663905489 -0.911300964178 -0.339661776745 -0.911301155602 -0.117316508898 0.0552497131695
1.587 -0.117565418584 0.0553940767761 -0.340778287637 -0.910830951854 -0.340776164922 -0.910831151397 -0.117534867981 0.0555054291323
1.588 -0.117783606551 0.0556504990902 -0.341891986989 -0.910359475772 -0.341889870425 -0.910359683377 -0.117752926283 0.0557618136064
1.589 -0.118001491685 0.0559075899328 -0.343005001246 -0.909886537001 -0.343002890955 -0.909886752611 -0.117970681847 0.0560188661669
1.59 -0.118219072029 0.0561653488735 -0.344117328112 -0.909412136616 -0.344115224213 -0.909412360174 -0.118188132717 0.0562765863832
1.591 -0.118436345626 0.056423775476 -0.345228965289 -0.908936275697 -0.345226867902 -0.908936507145 -0.118405276938 0.0565349738184
1.592 -0.118653310519 0.0566828692977 -0.346339910485 -0.908458955328 -0.346337819729 -0.908459194607 -0.118622112554 0.0567940280298
1.593 -0.118869964751 0.0569426298903 -0.347450161406 -0.907980176598 -0.3474480774 -0.90798042365 -0.11883863761 0.0570537485687
1.594 -0.119086306367 0.0572030567993 -0.348559715762 -0.907499940601 -0.348557638623 -0.907500195368 -0.119054850152 0.05731413498
1.595 -0.119302333409 0.0574641495642 -0.349668571263 -0.907018248437 -0.349666501109 -0.907018510859 -0.119270748224 0.0575751868031
1.596 -0.119518043922 0.0577259077184 -0.350776725623 -0.90653510121 -0.35077466257 -0.906535371227 -0.119486329873 0.0578369035711
1.597 -0.11973343595 0.0579883307894 -0.351884176555 -0.906050500029 -0.351882120718 -0.906050777581 -0.119701593143 0.0580992848109
1.598 -0.119948507538 0.0582514182985 -0.352990921775 -0.905564446008 -0.35298887327 -0.905564731034 -0.119916536081 0.0583623300436
1.599 -0.120163256732 0.058515169761 -0.354096959001 -0.905076940265 -0.354094917943 -0.905077232704 -0.120131156735 0.0586260387841
1.6 -0.120377681576 0.0587795846861 -0.355202285952 -0.904587983926 -0.355200252454 -0.904588283717 -0.12034545315 0.0588904105414
1.601 -0.120591780117 0.059044662577 -0.35630690035 -0.904097578117 -0.356304874526 -0.904097885198 -0.120559423374 0.0591554448184
1.602 -0.120805550401 0.0593104029308 -0.357410799917 -0.903605723974 -0.357408781879 -0.903606038283 -0.120773065455 0.0594211411117
1.603 -0.121018990474 0.0595768052386 -0.358513982379 -0.903112422635 -0.358511972239 -0.903112744109 -0.120986377442 0.0596874989122
1.604 -0.121232098383 0.0598438689852 -0.359616445461 -0.902617675242 -0.359614443331 -0.902618003819 -0.121199357382 0.0599545177044
1.605 -0.121444872177 0.0601115936497 -0.360718186893 -0.902121482945 -0.360716192882 -0.902121818561 -0.121412003325 0.060222196967
1.606 -0.121657309903 0.0603799787047 -0.361819204405 -0.901623846897 -0.361817218623 -0.901624189488 -0.12162431332 0.0604905361724
1.607 -0.121869409609 0.0606490236171 -0.362919495728 -0.901124768255 -0.362917518285 -0.901125117758 -0.121836285418 0.060759534787
1.608 -0.122081169346 0.0609187278473 -0.364019058596 -0.900624248183 -0.3640170896 -0.900624604534 -0.122047917668 0.0610291922713
1.609 -0.122292587161 0.0611890908499 -0.365117890747 -0.90012228785 -0.365115930304 -0.900122650983 -0.122259208123 0.0612995080793
1.61 -0.122503661107 0.0614601120733 -0.366215989916 -0.899618888427 -0.366214038135 -0.899619258278 -0.122470154834 0.0615704816592
1.611 -0.122714389232 0.0617317909599 -0.367313353844 -0.899114051092 -0.36731141083 -0.899114427595 -0.122680755853 0.061842112453
1.612 -0.122924769589 0.0620041269457 -0.368409980272 -0.898607777028 -0.368408046131 -0.898608160118 -0.122891009234 0.0621143998968
1.613 -0.123134800229 0.062277119461 -0.369505866944 -0.898100067423 -0.369503941781 -0.898100457034 -0.123100913028 0.0623873434202
1.614 -0.123344479206 0.0625507679297 -0.370601011605 -0.897590923468 -0.370599095524 -0.897591319533 -0.123310465292 0.0626609424471
1.615 -0.123553804572 0.0628250717696 -0.371695412003 -0.897080346362 -0.371693505106 -0.897080748814 -0.123519664079 0.062935196395
1.616 -0.123762774381 0.0631000303925 -0.372789065887 -0.896568337305 -0.372787168277 -0.896568746079 -0.123728507445 0.0632101046754
1.617 -0.123971386687 0.063375643204 -0.373881971008 -0.896054897506 -0.373880082787 -0.896055312532 -0.123936993447 0.0634856666937
1.618 -0.124179639547 0.0636519096036 -0.374974125119 -0.895540028175 -0.374972246388 -0.895540449387 -0.124145120141 0.0637618818491
1.619 -0.124387531016 0.0639288289846 -0.376065525976 -0.895023730529 -0.376063656835 -0.89502415786 -0.124352885584 0.0640387495347
1.62 -0.124595059151 0.0642064007342 -0.377156171337 -0.894506005791 -0.377154311885 -0.894506439171 -0.124560287836 0.0643162691375
1.621 -0.12480222201 0.0644846242334 -0.37824605896 -0.893986855185 -0.378244209296 -0.893987294547 -0.124767324955 0.0645944400383
1.622 -0.12500901765 0.0647634988574 -0.379335186607 -0.893466279944 -0.37933334683 -0.893466725219 -0.124973995002 0.0648732616119
1.623 -0.125215444132 0.0650430239747 -0.380423552042 -0.892944281304 -0.380421722248 -0.892944732422 -0.125180296037 0.0651527332269
1.624 -0.125421499515 0.0653231989481 -0.38151115303 -0.892420860504 -0.381509333316 -0.892421317397 -0.125386226122 0.0654328542457
1.625 -0.12562718186 0.065604023134 -0.382597987339 -0.891896018792 -0.3825961778 -0.891896481389 -0.12559178332 0.0657136240245
1.626 -0.125832489228 0.0658854958828 -0.38368405274 -0.891369757416 -0.38368225347 -0.891370225648 -0.125796965693 0.0659950419135
1.627 -0.126037419683 0.0661676165386 -0.384769347002 -0.890842077634 -0.384767558097 -0.890842551431 -0.126001771307 0.0662771072567
1.628 -0.126241971288 0.0664503844395 -0.385853867902 -0.890312980704 -0.385852089454 -0.890313459996 -0.126206198226 0.066559819392
1.629 -0.126446142108 0.0667337989174 -0.386937613215 -0.889782467892 -0.386935845316 -0.889782952608 -0.126410244517 0.066843177651
1.63 -0.126649930208 0.0670178592979 -0.38802058072 -0.889250540468 -0.388018823462 -0.889251030537 -0.126613908247 0.0671271813593
1.631 -0.126853333654 0.0673025649005 -0.389102768197 -0.888717199706 -0.38910102167 -0.888717695057 -0.126817187483 0.0674118298361
1.632 -0.127056350514 0.0675879150387 -0.390184173428 -0.888182446885 -0.390182437723 -0.888182947447 -0.127020080296 0.0676971223948
1.633 -0.127258978857 0.0678739090196 -0.3912647942 -0.88764628329 -0.391263069405 -0.887646788991 -0.127222584755 0.0679830583424
1.634 -0.127461216751 0.0681605461442 -0.392344628299 -0.88710871021 -0.392342914503 -0.887109220979 -0.127424698932 0.0682696369797
1.635 -0.127663062268 0.0684478257073 -0.393423673514 -0.886569728938 -0.393421970804 -0.886570244702 -0.127626420899 0.0685568576015
1.636 -0.12786451348 0.0687357469977 -0.394501927638 -0.886029340773 -0.394500236101 -0.886029861461 -0.127827748728 0.0688447194962
1.637 -0.128065568458 0.0690243092979 -0.395579388463 -0.885487547018 -0.395577708185 -0.885488072557 -0.128028680496 0.0691332219463
1.638 -0.128266225278 0.069313511884 -0.396656053788 -0.884944348981 -0.396654384853 -0.884944879299 -0.128229214276 0.0694223642278
1.639 -0.128466482013 0.0696033540263 -0.397731921409 -0.884399747976 -0.397730263902 -0.884400282999 -0.128429348147 0.0697121456109
1.64 -0.128666336741 0.0698938349886 -0.398806989129 -0.883853745319 -0.398805343132 -0.883854284975 -0.128629080186 0.0700025653594
1.641 -0.128865787538 0.0701849540287 -0.399881254749 -0.883306342333 -0.399879620345 -0.883306886549 -0.128828408472 0.0702936227308
1.642 -0.129064832483 0.0704767103982 -0.400954716075 -0.882757540345 -0.400953093347 -0.882758089047 -0.129027331085 0.0705853169768
1.643 -0.129263469657 0.0707691033425 -0.402027370916 -0.882207340687 -0.402025759943 -0.882207893803 -0.129225846108 0.0708776473425
1.644 -0.129461697139 0.0710621321007 -0.403099217082 -0.881655744697 -0.403097617943 -0.881656302151 -0.129423951623 0.071170613067
1.645 -0.129659513014 0.0713557959057 -0.404170252384 -0.881102753714 -0.404168665159 -0.881103315433 -0.129621645713 0.0714642133833
1.646 -0.129856915363 0.0716500939845 -0.405240474638 -0.880548369085 -0.405238899405 -0.880548934996 -0.129818926466 0.0717584475181
1.647 -0.130053902273 0.0719450255575 -0.406309881662 -0.879992592161 -0.406308318498 -0.879993162189 -0.130015791966 0.0720533146919
1.648 -0.130250471829 0.0722405898392 -0.407378471274 -0.879435424297 -0.407376920255 -0.879435998369 -0.130212240303 0.072348814119
1.649 -0.13044662212 0.0725367860377 -0.408446241298 -0.878876866855 -0.4084447025 -0.878877444895 -0.130408269566 0.0726449450077
1.65 -0.130642351234 0.0728336133551 -0.409513189557 -0.878316921197 -0.409511663054 -0.878317503132 -0.130603877846 0.0729417065599
1.651 -0.130837657262 0.0731310709872 -0.41057931388 -0.877755588696 -0.410577799745 -0.877756174449 -0.130799063235 0.0732390979713
1.652 -0.131032538295 0.0734291581234 -0.411644612094 -0.877192870724 -0.411643110401 -0.877193460222 -0.130993823826 0.0735371184315
1.653 -0.131226992427 0.0737278739474 -0.412709082033 -0.876628768661 -0.412707592852 -0.876629361829 -0.131188157716 0.0738357671239
1.654 -0.131421017754 0.0740272176361 -0.41377272153 -0.87606328389 -0.413771244934 -0.876063880653 -0.131382062999 0.0741350432257
1.655 -0.13161461237 0.0743271883607 -0.414835528423 -0.875496417801 -0.414834064481 -0.875497018083 -0.131575537776 0.0744349459078
1.656 -0.131807774375 0.0746277852858 -0.415897500552 -0.874928171786 -0.415896049333 -0.874928775512 -0.131768580144 0.0747354743352
1.657 -0.132000501867 0.0749290075701 -0.416958635758 -0.874358547243 -0.41695719733 -0.874359154338 -0.131961188206 0.0750366276662
1.658 -0.132192792947 0.0752308543659 -0.418018931886 -0.873787545574 -0.418017506316 -0.873788155963 -0.132153360064 0.0753384050534
1.659 -0.132384645717 0.0755333248194 -0.419078386782 -0.873215168187 -0.419076974138 -0.873215781794 -0.132345093822 0.0756408056429
1.66 -0.132576058283 0.0758364180706 -0.420136998298 -0.872641416494 -0.420135598644 -0.872642033243 -0.132536387587 0.0759438285748
1.661 -0.132767028749 0.0761401332532 -0.421194764285 -0.87206629191 -0.421193377685 -0.872066911726 -0.132727239465 0.0762474729828
1.662 -0.132957555223 0.0764444694947 -0.422251682598 -0.871489795858 -0.422250309116 -0.871490418665 -0.132917647566 0.0765517379945
1.663 -0.133147635813 0.0767494259165 -0.423307751094 -0.870911929762 -0.423306390793 -0.870912555484 -0.133107610001 0.0768566227314
1.664 -0.133337268631 0.0770550016337 -0.424362967634 -0.870332695054 -0.424361620575 -0.870333323615 -0.133297124883 0.0771621263086
1.665 -0.133526451789 0.0773611957552 -0.42541733008 -0.869752093168 -0.425415996325 -0.869752724493 -0.133486190325 0.0774682478351
1.666 -0.133715183401 0.0776680073838 -0.426470836298 -0.869170125544 -0.426469515906 -0.869170759556 -0.133674804444 0.0777749864138
1.667 -0.133903461583 0.077975435616 -0.427523484156 -0.868586793626 -0.427522177186 -0.86858743025 -0.133862965357 0.0780823411412
1.668 -0.134091284452 0.078283479542 -0.428575271525 -0.868002098863 -0.428573978035 -0.868002738023 -0.134050671184 0.0783903111078
1.669 -0.134278650129 0.078592138246 -0.429626196278 -0.867416042709 -0.429624916325 -0.867416684328 -0.134237920046 0.0786988953978
1.67 -0.134465556733 0.078901410806 -0.430676256292 -0.866828626622 -0.430674989931 -0.866829270624 -0.134424710066 0.0790080930892
1.671 -0.134652002389 0.0792112962934 -0.431725449445 -0.866239852063 -0.431724196731 -0.866240498373 -0.13461103937 0.0793179032538
1.672 -0.134837985221 0.079521793774 -0.432773773618 -0.865649720502 -0.432772534607 -0.865650369043 -0.134796906084 0.0796283249573
1.673 -0.135023503357 0.0798329023069 -0.433821226697 -0.865058233409 -0.433820001441 -0.865058884105 -0.134982308337 0.079939357259
1.674 -0.135208554924 0.0801446209452 -0.434867806569 -0.86446539226 -0.434866595119 -0.864466045036 -0.135167244259 0.0802509992123
1.675 -0.135393138054 0.0804569487359 -0.435913511123 -0.863871198538 -0.435912313531 -0.863871853317 -0.135351711984 0.0805632498642
1.676 -0.135577250879 0.0807698847196 -0.436958338251 -0.863275653727 -0.436957154568 -0.863276310433 -0.135535709645 0.0808761082554
1.677 -0.135760891535 0.0810834279308 -0.438002285851 -0.862678759318 -0.438001116125 -0.862679417874 -0.135719235379 0.0811895734208
1.678 -0.135944058157 0.0813975773978 -0.439045351819 -0.862080516804 -0.439044196099 -0.862081177136 -0.135902287326 0.0815036443888
1.679 -0.136126748884 0.0817123321427 -0.440087534056 -0.861480927687 -0.44008639239 -0.861481589717 -0.136084863625 0.0818183201816
1.68 -0.136308961857 0.0820276911813 -0.441128830468 -0.860879993468 -0.441127702901 -0.860880657122 -0.136266962418 0.0821335998154
1.681 -0.136490695218 0.0823436535235 -0.442169238961 -0.860277715657 -0.442168125539 -0.860278380858 -0.136448581852 0.0824494823001
1.682 -0.136671947113 0.0826602181727 -0.443208757443 -0.859674095766 -0.44320765821 -0.859674762439 -0.136629720071 0.0827659666395
1.683 -0.136852715689 0.0829773841263 -0.444247383829 -0.859069135313 -0.444246298828 -0.859069803381 -0.136810375226 0.083083051831
1.684 -0.137032999094 0.0832951503753 -0.445285116032 -0.858462835819 -0.445284045307 -0.858463505207 -0.136990545468 0.0834007368662
1.685 -0.13721279548 0.0836135159048 -0.446321951972 -0.857855198811 -0.446320895563 -0.857855869443 -0.137170228949 0.0837190207301
1.686 -0.137392103 0.0839324796935 -0.44735788957 -0.857246225819 -0.447356847518 -0.85724689762 -0.137349423824 0.0840379024019
1.687 -0.137570919809 0.0842520407141 -0.44839292675 -0.856635918379 -0.448391899094 -0.856636591273 -0.137528128253 0.0843573808543
1.688 -0.137749244067 0.0845721979328 -0.44942706144 -0.856024278031 -0.449426048217 -0.856024951943 -0.137706340393 0.084677455054
1.689 -0.137927073932 0.08489295031 -0.450460291568 -0.855411306319 -0.450459292817 -0.855411981173 -0.137884058408 0.0849981239617
1.69 -0.138104407568 0.0852142967996 -0.451492615068 -0.854797004791 -0.451491630825 -0.854797680513 -0.138061280461 0.0853193865315
1.691 -0.138281243138 0.0855362363497 -0.452524029877 -0.854181375001 -0.452523060177 -0.854182051515 -0.13823800472 0.0856412417118
1.692 -0.13845757881 0.0858587679019 -0.453554533932 -0.853564418507 -0.45355357881 -0.853565095738 -0.138414229353 0.0859636884445
1.693 -0.138633412753 0.0861818903917 -0.454584125177 -0.852946136871 -0.454583184666 -0.852946814744 -0.138589952531 0.0862867256655
1.694 -0.138808743139 0.0865056027485 -0.455612801556 -0.852326531658 -0.455611875688 -0.852327210099 -0.138765172429 0.0866103523046
1.695 -0.138983568142 0.0868299038956 -0.456640561017 -0.851705604441 -0.456639649824 -0.851706283375 -0.138939887221 0.0869345672851
1.696 -0.139157885939 0.0871547927499 -0.457667401511 -0.851083356794 -0.457666505023 -0.851084036147 -0.139114095088 0.0872593695247
1.697 -0.139331694707 0.0874802682225 -0.458693320993 -0.850459790298 -0.458692439239 -0.850460469995 -0.139287794209 0.0875847579345
1.698 -0.139504992629 0.087806329218 -0.459718317419 -0.849834906536 -0.459717450427 -0.849835586503 -0.139460982768 0.0879107314197
1.699 -0.139677777889 0.0881329746351 -0.46074238875 -0.849208707098 -0.460741536548 -0.849209387261 -0.13963365895 0.0882372888792
1.7 -0.139850048673 0.0884602033661 -0.461765532949 -0.848581193576 -0.461764695563 -0.848581873861 -0.139805820945 0.0885644292059
1.701 -0.140021803169 0.0887880142975 -0.462787747983 -0.847952367568 -0.462786925438 -0.847953047901 -0.139977466942 0.0888921512864
1.702 -0.140193039569 0.0891164063093 -0.463809031822 -0.847322230675 -0.463808224141 -0.847322910983 -0.140148595136 0.0892204540014
1.703 -0.140363756068 0.0894453782757 -0.464829382437 -0.846690784503 -0.464828589645 -0.846691464713 -0.140319203722 0.0895493362254
1.704 -0.140533950861 0.0897749290644 -0.465848797805 -0.846058030665 -0.465848019923 -0.846058710703 -0.140489290899 0.0898787968265
1.705 -0.140703622148 0.0901050575374 -0.466867275905 -0.845423970773 -0.466866512954 -0.845424650566 -0.140658854868 0.0902088346671
1.706 -0.14087276813 0.0904357625501 -0.46788481472 -0.844788606447 -0.46788406672 -0.844789285924 -0.140827893833 0.0905394486032
1.707 -0.141041387013 0.0907670429522 -0.468901412233 -0.844151939312 -0.468900679204 -0.844152618398 -0.140996406001 0.0908706374848
1.708 -0.141209477004 0.091098897587 -0.469917066435 -0.843513970994 -0.469916348394 -0.843514649618 -0.14116438958 0.0912024001557
1.709 -0.141377036311 0.0914313252919 -0.470931775316 -0.842874703127 -0.47093107228 -0.842875381217 -0.141331842783 0.0915347354539
1.71 -0.141544063149 0.091764324898 -0.471945536873 -0.842234137346 -0.471944848857 -0.84223481483 -0.141498763824 0.0918676422108
1.711 -0.141710555732 0.0920978952303 -0.472958349102 -0.841592275293 -0.472957676122 -0.841592952099 -0.14166515092 0.0922011192521
1.712 -0.141876512278 0.092432035108 -0.473970210006 -0.840949118613 -0.473969552075 -0.840949794669 -0.141831002293 0.0925351653973
1.713 -0.142041931009 0.0927667433438 -0.474981117588 -0.840304668955 -0.47498047472 -0.840305344191 -0.141996316164 0.0928697794597
1.714 -0.142206810148 0.0931020187446 -0.475991069858 -0.839658927973 -0.475990442064 -0.839659602317 -0.14216109076 0.0932049602467
1.715 -0.142371147922 0.093437860111 -0.477000064827 -0.839011897325 -0.476999452117 -0.839012570707 -0.142325324309 0.0935407065596
1.716 -0.142534942561 0.0937742662377 -0.478008100508 -0.838363578674 -0.478007502892 -0.838364251024 -0.142489015043 0.0938770171934
1.717 -0.142698192296 0.0941112359133 -0.47901517492 -0.837713973686 -0.479014592406 -0.837714644933 -0.142652161196 0.0942138909374
1.718 -0.142860895364 0.0944487679201 -0.480021286083 -0.837063084031 -0.48002071868 -0.837063754106 -0.142814761006 0.0945513265745
1.719 -0.143023050002 0.0947868610347 -0.481026432023 -0.836410911386 -0.481025879736 -0.836411580218 -0.142976812713 0.0948893228818
1.72 -0.143184654452 0.0951255140273 -0.482030610768 -0.835757457429 -0.482030073602 -0.83575812495 -0.143138314561 0.0952278786301
1.721 -0.143345706957 0.0954647256623 -0.483033820347 -0.835102723844 -0.483033298308 -0.835103389984 -0.143299264795 0.0955669925843
1.722 -0.143506205767 0.0958044946979 -0.484036058797 -0.834446712318 -0.484035551887 -0.834447377009 -0.143459661665 0.0959066635034
1.723 -0.143666149129 0.0961448198863 -0.485037324155 -0.833789424545 -0.485036832376 -0.833790087718 -0.143619503423 0.0962468901402
1.724 -0.143825535299 0.0964856999737 -0.486037614461 -0.833130862218 -0.486037137815 -0.833131523806 -0.143778788325 0.0965876712413
1.725 -0.143984362532 0.0968271337001 -0.487036927761 -0.832471027041 -0.487036466248 -0.832471686974 -0.14393751463 0.0969290055476
1.726 -0.144142629088 0.0971691197998 -0.488035262104 -0.831809920716 -0.488034815722 -0.831810578928 -0.144095680598 0.0972708917939
1.727 -0.14430033323 0.0975116570007 -0.489032615539 -0.831147544952 -0.489032184287 -0.831148201377 -0.144253284494 0.0976133287089
1.728 -0.144457473223 0.097854744025 -0.490028986124 -0.830483901463 -0.490028569998 -0.830484556033 -0.144410324587 0.0979563150153
1.729 -0.144614047337 0.0981983795886 -0.491024371915 -0.829818991966 -0.491023970911 -0.829819644615 -0.144566799148 0.0982998494298
1.73 -0.144770053844 0.0985425624017 -0.492018770975 -0.829152818181 -0.492018385088 -0.829153468843 -0.14472270645 0.0986439306632
1.731 -0.144925491018 0.0988872911683 -0.493012181368 -0.828485381835 -0.493011810592 -0.828486030443 -0.144878044772 0.0989885574203
1.732 -0.14508035714 0.0992325645865 -0.494004601165 -0.827816684657 -0.494004245493 -0.827817331147 -0.145032812394 0.0993337283999
1.733 -0.145234650491 0.0995783813483 -0.494996028437 -0.82714672838 -0.494995687859 -0.827147372686 -0.1451870076 0.0996794422946
1.734 -0.145388369356 0.0999247401399 -0.49598646126 -0.826475514742 -0.495986135768 -0.8264761568 -0.145340628678 0.100025697791
1.735 -0.145541512024 0.100271639641 -0.496975897714 -0.825803045485 -0.496975587296 -0.825803685231 -0.145493673918 0.100372493571
1.736 -0.145694076786 0.100619078527 -0.497964335881 -0.825129322355 -0.497964040526 -0.825129959726 -0.145646141614 0.100719828309
1.737 -0.145846061939 0.100967055465 -0.498951773847 -0.824454347103 -0.498951493543 -0.824454982033 -0.145798030063 0.101067700674
1.738 -0.14599746578 0.101315569117 -0.499938209703 -0.823778121481 -0.499937944436 -0.82377875391 -0.145949337567 0.101416109328
1.739 -0.146148286613 0.10166461814 -0.500923641542 -0.823100647249 -0.500923391297 -0.823101277113 -0.14610006243 0.10176505293
1.74 -0.146298522742 0.102014201185 -0.501908067462 -0.822421926169 -0.501907832223 -0.822422553405 -0.146250202959 0.10211453013
1.741 -0.146448172477 0.102364316895 -0.502891485563 -0.821741960007 -0.502891265312 -0.821742584554 -0.146399757465 0.102464539573
1.742 -0.14659723413 0.10271496391 -0.503873893949 -0.821060750534 -0.503873688669 -0.821061372331 -0.146548724263 0.1028150799
1.743 -0.146745706016 0.103066140861 -0.504855290728 -0.820378299524 -0.5048551004 -0.820378918509 -0.146697101671 0.103166149742
1.744 -0.146893586457 0.103417846377 -0.505835674012 -0.819694608755 -0.505835498616 -0.819695224868 -0.146844888011 0.103517747729
1.745 -0.147040873775 0.103770079077 -0.506815041916 -0.81900968001 -0.50681488143 -0.819010293191 -0.146992081608 0.103869872482
1.746 -0.147187566296 0.104122837576 -0.507793392558 -0.818323515075 -0.50779324696 -0.818324125265 -0.14713868079 0.104222522615
1.747 -0.147333662351 0.104476120484 -0.508770724062 -0.817636115741 -0.508770593329 -0.817636722881 -0.14728468389 0.104575696741
1.748 -0.147479160274 0.104829926403 -0.509747034553 -0.816947483803 -0.50974691866 -0.816948087833 -0.147430089245 0.104929393462
1.749 -0.147624058402 0.105184253932 -0.510722322162 -0.816257621058 -0.510722221083 -0.816258221921 -0.147574895193 0.105283611376
1.75 -0.147768355078 0.105539101661 -0.51169658502 -0.81556652931 -0.511696498729 -0.815567126948 -0.147719100079 0.105638349077
1.751 -0.147912048645 0.105894468177 -0.512669821267 -0.814874210364 -0.512669749736 -0.81487480472 -0.147862702249 0.105993605151
1.752 -0.148055137452 0.106250352058 -0.513642029043 -0.814180666031 -0.513641972243 -0.814181257048 -0.148005700053 0.106349378178
1.753 -0.148197619853 0.10660675188 -0.514613206491 -0.813485898125 -0.514613164394 -0.813486485747 -0.148148091847 0.106705666733
1.754 -0.148339494202 0.10696366621 -0.515583351762 -0.812789908465 -0.515583324335 -0.812790492636 -0.148289875989 0.107062469386
1.755 -0.148480758861 0.10732109361 -0.516552463007 -0.812092698872 -0.516552450218 -0.812093279537 -0.148431050841 0.1074197847
1.756 -0.148621412193 0.107679032637 -0.517520538381 -0.811394271173 -0.517520540198 -0.811394848277 -0.148571614769 0.107777611232
1.757 -0.148761452566 0.108037481843 -0.518487576044 -0.810694627197 -0.518487592433 -0.810695200687 -0.148711566142 0.108135947535
1.758 -0.148900878351 0.108396439771 -0.519453574161 -0.809993768779 -0.519453605086 -0.8099943386 -0.148850903335 0.108494792153
1.759 -0.149039687924 0.108755904961 -0.520418530897 -0.809291697755 -0.520418576323 -0.809292263855 -0.148989624724 0.108854143628
1.76 -0.149177879664 0.109115875946 -0.521382444425 -0.808588415969 -0.521382504313 -0.808588978295 -0.149127728692 0.109214000493
1.761 -0.149315451954 0.109476351255 -0.522345312918 -0.807883925265 -0.522345387231 -0.807884483765 -0.149265213623 0.109574361278
1.762 -0.149452403182 0.109837329408 -0.523307134556 -0.807178227492 -0.523307223254 -0.807178782115 -0.149402077907 0.109935224506
1.763 -0.149588731739 0.110198808923 -0.524267907521 -0.806471324504 -0.524268010563 -0.806471875198 -0.149538319938 0.110296588693
1.764 -0.149724436021 0.11056078831 -0.52522763 -0.805763218157 -0.525227747344 -0.805763764874 -0.149673938111 0.110658452352
1.765 -0.149859514425 0.110923266073 -0.526186300182 -0.805053910313 -0.526186431786 -0.805054453001 -0.14980893083 0.111020813987
1.766 -0.149993965357 0.111286240712 -0.527143916261 -0.804343402836 -0.527144062082 -0.804343941447 -0.149943296499 0.1113836721
1.767 -0.150127787223 0.11164971072 -0.528100476436 -0.803631697595 -0.528100636429 -0.80363223208 -0.150077033528 0.111747025185
1.768 -0.150260978436 0.112013674585 -0.529055978908 -0.802918796461 -0.529056153027 -0.802919326773 -0.15021014033 0.112110871731
1.769 -0.150393537409 0.112378130788 -0.530010421884 -0.802204701312 -0.530010610081 -0.802205227402 -0.150342615324 0.11247521022
1.77 -0.150525462564 0.112743077806 -0.530963803572 -0.801489414025 -0.5309640058 -0.801489935848 -0.15047445693 0.11284003913
1.771 -0.150656752324 0.11310851411 -0.531916122186 -0.800772936486 -0.531916338396 -0.800773453995 -0.150605663576 0.113205356934
1.772 -0.150787405118 0.113474438165 -0.532867375944 -0.800055270582 -0.532867606085 -0.800055783731 -0.150736233691 0.113571162097
1.773 -0.150917419378 0.11384084843 -0.533817563067 -0.799336418202 -0.533817807089 -0.799336926948 -0.15086616571 0.11393745308
1.774 -0.15104679354 0.114207743359 -0.53476668178 -0.798616381243 -0.53476693963 -0.798616885541 -0.150995458071 0.114304228338
1.775 -0.151175526046 0.114575121401 -0.535714730313 -0.797895161603 -0.535715001938 -0.797895661409 -0.151124109217 0.11467148632
1.776 -0.151303615341 0.114942980997 -0.5366617069 -0.797172761184 -0.536661992245 -0.797173256454 -0.151252117596 0.11503922547
1.777 -0.151431059873 0.115311320586 -0.537607609776 -0.796449181892 -0.537607908787 -0.796449672585 -0.15137948166 0.115407444227
1.778 -0.151557858098 0.115680138597 -0.538552437185 -0.795724425636 -0.538552749804 -0.79572491171 -0.151506199864 0.115776141023
1.779 -0.151684008474 0.116049433459 -0.53949618737 -0.794998494329 -0.53949651354 -0.794998975745 -0.151632270668 0.116145314286
1.78 -0.151809509462 0.116419203589 -0.540438858581 -0.79427138989 -0.540439198244 -0.794271866605 -0.151757692537 0.116514962436
1.781 -0.15193435953 0.116789447405 -0.541380449072 -0.793543114238 -0.541380802168 -0.793543586214 -0.151882463941 0.116885083891
1.782 -0.15205855715 0.117160163314 -0.5423209571 -0.792813669297 -0.542321323568 -0.792814136495 -0.152006583352 0.11725567706
1.783 -0.152182100797 0.117531349721 -0.543260380926 -0.792083056996 -0.543260760705 -0.792083519377 -0.152130049248 0.117626740349
1.784 -0.152304988952 0.117903005024 -0.544198718816 -0.791351279266 -0.544199111842 -0.791351736793 -0.152252860113 0.117998272157
1.785 -0.152427220099 0.118275127616 -0.545135969039 -0.790618338042 -0.545136375249 -0.790618790678 -0.152375014433 0.118370270878
1.786 -0.152548792729 0.118647715883 -0.546072129869 -0.789884235262 -0.546072549198 -0.789884682971 -0.152496510699 0.118742734902
1.787 -0.152669705334 0.119020768209 -0.547007199583 -0.78914897287 -0.547007631966 -0.789149415617 -0.152617347407 0.119115662611
1.788 -0.152789956414 0.119394282969 -0.547941176464 -0.788412552811 -0.547941621832 -0.788412990561 -0.152737523059 0.119489052383
1.789 -0.152909544472 0.119768258534 -0.548874058797 -0.787674977034 -0.548874517083 -0.787675409753 -0.152857036158 0.119862902591
1.79 -0.153028468015 0.12014269327 -0.549805844872 -0.786936247493 -0.549806316007 -0.786936675148 -0.152975885216 0.120237211601
1.791 -0.153146725556 0.120517585537 -0.550736532983 -0.786196366145 -0.550737016897 -0.786196788703 -0.153094068745 0.120611977774
1.792 -0.153264315612 0.120892933691 -0.551666121429 -0.785455334948 -0.55166661805 -0.785455752378 -0.153211585266 0.120987199468
1.793 -0.153381236704 0.121268736079 -0.552594608511 -0.784713155868 -0.552595117768 -0.784713568139 -0.153328433302 0.121362875033
1.794 -0.153497487359 0.121644991046 -0.553521992537 -0.78396983087 -0.553522514356 -0.783970237952 -0.153444611381 0.121739002814
1.795 -0.153613066109 0.122021696932 -0.554448271817 -0.783225361927 -0.554448806124 -0.78322576379 -0.153560118037 0.122115581151
1.796 -0.153727971489 0.122398852068 -0.555373444666 -0.782479751011 -0.555373991386 -0.782480147627 -0.153674951808 0.12249260838
1.797 -0.15384220204 0.122776454784 -0.556297509403 -0.781733000101 -0.55629806846 -0.781733391442 -0.153789111236 0.122870082829
1.798 -0.153955756307 0.123154503401 -0.557220464352 -0.780985111178 -0.557221035667 -0.780985497217 -0.153902594869 0.123248002822
1.799 -0.154068632841 0.123532996238 -0.558142307839 -0.780236086227 -0.558142891335 -0.780236466937 -0.154015401259 0.12362636668
1.8 -0.154180830196 0.123911931606 -0.559063038197 -0.779485927235 -0.559063633794 -0.779486302591 -0.154127528964 0.124005172714
1.801 -0.154292346934 0.124291307812 -0.559982653761 -0.778734636193 -0.559983261379 -0.778735006171 -0.154238976544 0.124384419234
1.802 -0.154403181619 0.124671123158 -0.560901152871 -0.777982215098 -0.560901772429 -0.777982579673 -0.154349742568 0.124764104542
1.803 -0.15451333282 0.12505137594 -0.561818533873 -0.777228665947 -0.561819165287 -0.777229025097 -0.154459825608 0.125144226937
1.804 -0.154622799114 0.125432064448 -0.562734795114 -0.776473990742 -0.562735438302 -0.776474344444 -0.154569224239 0.12552478471
1.805 -0.154731579078 0.12581318697 -0.563649934947 -0.775718191487 -0.563650589824 -0.775718539721 -0.154677937044 0.12590577615
1.806 -0.154839671299 0.126194741785 -0.56456395173 -0.774961270193 -0.56456461821 -0.774961612936 -0.154785962609 0.126287199539
1.807 -0.154947074365 0.126576727169 -0.565476843824 -0.774203228869 -0.56547752182 -0.774203566104 -0.154893299527 0.126669053153
1.808 -0.155053786873 0.126959141392 -0.566388609594 -0.773444069533 -0.56638929902 -0.773444401239 -0.154999946393 0.127051335265
1.809 -0.155159807421 0.127341982721 -0.567299247411 -0.772683794201 -0.567299948178 -0.772684120362 -0.15510590181 0.127434044141
1.81 -0.155265134614 0.127725249413 -0.568208755649 -0.771922404897 -0.568209467667 -0.771922725494 -0.155211164384 0.127817178043
1.811 -0.155369767063 0.128108939725 -0.569117132687 -0.771159903645 -0.569117855865 -0.771160218663 -0.155315732728 0.128200735228
1.812 -0.155473703382 0.128493051907 -0.570024376907 -0.770396292474 -0.570025111154 -0.770396601897 -0.155419605458 0.128584713946
1.813 -0.155576942192 0.128877584202 -0.570930486697 -0.769631573416 -0.57093123192 -0.76963187723 -0.155522781197 0.128969112445
1.814 -0.155679482119 0.129262534851 -0.571835460448 -0.768865748506 -0.571836216555 -0.768866046697 -0.155625258572 0.129353928965
1.815 -0.155781321792 0.129647902088 -0.572739296557 -0.768098819782 -0.572740063452 -0.768099112337 -0.155727036216 0.129739161744
1.816 -0.155882459848 0.130033684143 -0.573641993424 -0.767330789286 -0.573642771011 -0.767331076194 -0.155828112766 0.130124809011
1.817 -0.155982894928 0.13041987924 -0.574543549453 -0.766561659063 -0.574544337636 -0.766561940313 -0.155928486865 0.130510868993
1.818 -0.156082625677 0.130806485599 -0.575443963054 -0.765791431162 -0.575444761736 -0.765791706743 -0.156028157162 0.130897339912
1.819 -0.156181650749 0.131193501434 -0.57634323264 -0.765020107633 -0.576344041722 -0.765020377536 -0.15612712231 0.131284219984
1.82 -0.156279968799 0.131580924955 -0.577241356629 -0.764247690531 -0.577242176011 -0.764247954749 -0.156225380967 0.13167150742
1.821 -0.15637757849 0.131968754367 -0.578138333443 -0.763474181914 -0.578139163025 -0.763474440439 -0.156322931799 0.132059200425
1.822 -0.156474478489 0.132356987868 -0.579034161509 -0.762699583843 -0.579035001189 -0.762699836669 -0.156419773473 0.132447297203
1.823 -0.156570667469 0.132745623654 -0.579928839258 -0.761923898383 -0.579929688934 -0.761924145504 -0.156515904666 0.132835795948
1.824 -0.156666144108 0.133134659914 -0.580822365125 -0.7611471276 -0.580823224695 -0.761147369012 -0.156611324057 0.133224694853
1.825 -0.156760907091 0.133524094833 -0.581714737551 -0.760369273566 -0.581715606909 -0.760369509265 -0.156706030332 0.133613992105
1.826 -0.156854955106 0.133913926592 -0.58260595498 -0.759590338353 -0.582606834021 -0.759590568338 -0.156800022181 0.134003685884
1.827 -0.156948286847 0.134304153366 -0.583496015861 -0.758810324039 -0.583496904478 -0.758810548307 -0.156893298302 0.134393774368
1.828 -0.157040901016 0.134694773324 -0.584384918648 -0.758029232704 -0.584385816734 -0.758029451255 -0.156985857396 0.13478425573
1.829 -0.157132796316 0.135085784632 -0.585272661797 -0.75724706643 -0.585273569244 -0.757247279265 -0.15707769817 0.135175128136
1.83 -0.15722397146 0.135477185452 -0.586159243771 -0.756463827304 -0.58616016047 -0.756464034423 -0.157168819337 0.135566389749
1.831 -0.157314425164 0.135868973938 -0.587044663038 -0.755679517416 -0.587045588879 -0.755679718822 -0.157259219616 0.135958038727
1.832 -0.15740415615 0.136261148242 -0.587928918068 -0.754894138856 -0.587929852939 -0.754894334553 -0.15734889773 0.136350073223
1.833 -0.157493163146 0.136653706511 -0.588812007338 -0.754107693722 -0.588812951127 -0.754107883713 -0.15743785241 0.136742491384
1.834 -0.157581444885 0.137046646886 -0.589693929327 -0.753320184111 -0.589694881922 -0.753320368402 -0.15752608239 0.137135291356
1.835 -0.157669000105 0.137439967503 -0.59057468252 -0.752531612124 -0.590575643806 -0.752531790722 -0.157613586411 0.137528471275
1.836 -0.157755827552 0.137833666496 -0.591454265408 -0.751741979866 -0.59145523527 -0.751742152779 -0.15770036322 0.137922029277
1.837 -0.157841925976 0.138227741991 -0.592332676483 -0.750951289446 -0.592333654806 -0.75095145668 -0.157786411567 0.138315963491
1.838 -0.157927294132 0.138622192112 -0.593209914244 -0.750159542972 -0.593210900911 -0.750159704538 -0.157871730212 0.138710272042
1.839 -0.158011930783 0.139017014977 -0.594085977194 -0.749366742559 -0.594086972087 -0.749366898467 -0.157956317918 0.13910495305
1.84 -0.158095834695 0.1394122087 -0.594960863841 -0.748572890323 -0.594961866842 -0.748573040585 -0.158040173453 0.139500004631
1.841 -0.158179004642 0.139807771388 -0.595834572697 -0.747777988383 -0.595835583686 -0.747778133012 -0.158123295592 0.139895424895
1.842 -0.158261439402 0.140203701148 -0.596707102279 -0.746982038863 -0.596708121135 -0.746982177871 -0.158205683116 0.140291211949
1.843 -0.158343137761 0.140599996079 -0.597578451107 -0.746185043886 -0.597579477709 -0.74618517729 -0.158287334812 0.140687363895
1.844 -0.158424098507 0.140996654275 -0.598448617709 -0.745387005582 -0.598449651934 -0.745387133396 -0.158368249472 0.14108387883
1.845 -0.158504320439 0.141393673829 -0.599317600613 -0.744587926081 -0.59931864234 -0.744588048322 -0.158448425893 0.141480754847
1.846 -0.158583802358 0.141791052825 -0.600185398357 -0.743787807518 -0.600186447459 -0.743787924204 -0.158527862879 0.141877990034
1.847 -0.158662543071 0.142188789347 -0.601052009478 -0.74298665203 -0.601053065832 -0.74298676318 -0.158606559241 0.142275582476
1.848 -0.158740541393 0.142586881471 -0.601917432523 -0.742184461755 -0.601918496002 -0.74218456739 -0.158684513794 0.142673530251
1.849 -0.158817796144 0.14298532727 -0.602781666039 -0.741381238838 -0.602782736516 -0.741381338978 -0.158761725359 0.143071831434
1.85 -0.158894306149 0.143384124813 -0.60364470858 -0.740576985423 -0.603645785928 -0.740577080091 -0.158838192764 0.143470484097
1.851 -0.15897007024 0.143783272164 -0.604506558705 -0.739771703659 -0.604507642795 -0.739771792877 -0.158913914842 0.143869486304
1.852 -0.159045087255 0.144182767382 -0.605367214976 -0.738965395698 -0.605368305679 -0.738965479491 -0.158988890432 0.144268836119
1.853 -0.159119356036 0.144582608523 -0.606226675962 -0.738158063692 -0.606227773147 -0.738158142086 -0.15906311838 0.144668531598
1.854 -0.159192875435 0.144982793637 -0.607084940234 -0.737349709799 -0.60708604377 -0.73734978282 -0.159136597537 0.145068570794
1.855 -0.159265644306 0.145383320771 -0.607942006369 -0.736540336178 -0.607943116124 -0.736540403855 -0.159209326761 0.145468951756
1.856 -0.159337661511 0.145784187968 -0.60879787295 -0.735729944992 -0.60879898879 -0.735730007353 -0.159281304914 0.145869672528
1.857 -0.159408925918 0.146185393266 -0.609652538562 -0.734918538406 -0.609653660353 -0.734918595481 -0.159352530867 0.146270731151
1.858 -0.159479436401 0.146586934698 -0.610506001796 -0.734106118587 -0.610507129405 -0.734106170408 -0.159423003494 0.146672125661
1.859 -0.15954919184 0.146988810294 -0.611358261249 -0.733292687707 -0.611359394539 -0.733292734306 -0.159492721678 0.147073854089
1.86 -0.159618191121 0.147391018079 -0.61220931552 -0.732478247938 -0.612210454355 -0.732478289349 -0.159561684306 0.147475914463
1.861 -0.159686433136 0.147793556074 -0.613059163215 -0.731662801457 -0.613060307457 -0.731662837714 -0.159629890271 0.147878304806
1.862 -0.159753916784 0.148196422296 -0.613907802944 -0.730846350442 -0.613908952455 -0.730846381581 -0.159697338475 0.148281023137
1.863 -0.159820640969 0.148599614758 -0.614755233322 -0.730028897075 -0.614756387963 -0.730028923132 -0.159764027824 0.148684067471
1.864 -0.159886604602 0.149003131469 -0.615601452967 -0.729210443539 -0.615602612598 -0.729210464554 -0.159829957229 0.149087435819
1.865 -0.1599518066 0.149406970432 -0.616446460505 -0.728390992022 -0.616447624985 -0.728391008034 -0.159895125609 0.149491126188
1.866 -0.160016245886 0.149811129649 -0.617290254563 -0.727570544713 -0.617291423751 -0.727570555762 -0.15995953189 0.14989513658
1.867 -0.160079921391 0.150215607116 -0.618132833776 -0.726749103804 -0.618134007529 -0.726749109931 -0.160023175002 0.150299464994
1.868 -0.160142832049 0.150620400825 -0.618974196782 -0.725926671489 -0.618975374957 -0.725926672738 -0.160086053882 0.150704109425
1.869 -0.160204976803 0.151025508764 -0.619814342224 -0.725103249966 -0.619815524678 -0.72510324638 -0.160148167475 0.151109067862
1.87 -0.160266354602 0.151430928917 -0.620653268751 -0.724278841434 -0.620654455337 -0.72427883306 -0.160209514731 0.151514338294
1.871 -0.1603269644 0.151836659266 -0.621490975015 -0.723453448096 -0.621492165588 -0.723453434979 -0.160270094605 0.151919918701
1.872 -0.160386805158 0.152242697785 -0.622327459673 -0.722627072157 -0.622328654087 -0.722627054346 -0.160329906061 0.152325807063
1.873 -0.160445875844 0.152649042448 -0.623162721388 -0.721799715824 -0.623163919496 -0.721799693367 -0.160388948067 0.152732001354
1.874 -0.160504175432 0.153055691223 -0.623996758828 -0.720971381308 -0.62399796048 -0.720971354255 -0.1604472196 0.153138499545
1.875 -0.160561702901 0.153462642074 -0.624829570664 -0.72014207082 -0.624830775713 -0.720142039224 -0.16050471964 0.153545299604
1.876 -0.16061845724 0.153869892963 -0.625661155573 -0.719311786576 -0.625662363868 -0.719311750489 -0.160561447176 0.153952399492
1.877 -0.160674437441 0.154277441845 -0.626491512237 -0.718480530794 -0.626492723628 -0.718480490269 -0.160617401203 0.15435979717
1.878 -0.160729642503 0.154685286674 -0.627320639342 -0.717648305694 -0.627321853677 -0.717648260787 -0.160672580722 0.154767490592
1.879 -0.160784071433 0.1550934254 -0.62814853558 -0.716815113497 -0.628149752708 -0.716815064265 -0.16072698474 0.155175477711
1.88 -0.160837723244 0.155501855967 -0.628975199646 -0.71598095643 -0.628976419414 -0.715980902929 -0.160780612272 0.155583756474
1.881 -0.160890596955 0.155910576317 -0.629800630243 -0.71514583672 -0.629801852496 -0.715145779009 -0.160833462338 0.155992324825
1.882 -0.160942691591 0.156319584389 -0.630624826075 -0.714309756595 -0.63062605066 -0.714309694736 -0.160885533965 0.156401180704
1.883 -0.160994006184 0.156728878116 -0.631447785855 -0.71347271829 -0.631449012616 -0.713472652343 -0.160936826188 0.156810322048
1.884 -0.161044539775 0.157138455429 -0.632269508296 -0.712634724038 -0.632270737077 -0.712634654066 -0.160987338045 0.157219746791
1.885 -0.161094291407 0.157548314255 -0.63308999212 -0.711795776077 -0.633091222765 -0.711795702144 -0.161037068585 0.157629452861
1.886 -0.161143260133 0.157958452517 -0.633909236053 -0.710955876645 -0.633910468403 -0.710955798817 -0.161086016861 0.158039438183
1.887 -0.161191445012 0.158368868134 -0.634727238824 -0.710115027985 -0.634728472722 -0.710114946329 -0.161134181932 0.158449700681
1.888 -0.161238845109 0.158779559024 -0.635543999169 -0.709273232342 -0.635545234456 -0.709273146924 -0.161181562866 0.158860238273
1.889 -0.161285459496 0.159190523098 -0.636359515828 -0.708430491961 -0.636360752343 -0.708430402851 -0.161228158736 0.159271048874
1.89 -0.161331287251 0.159601758264 -0.637173787546 -0.707586809091 -0.63717502513 -0.70758671636 -0.161273968621 0.159682130394
1.891 -0.16137632746 0.16001326243 -0.637986813073 -0.706742185984 -0.637988051564 -0.706742089703 -0.161318991608 0.160093480742
1.892 -0.161420579215 0.160425033496 -0.638798591163 -0.705896624892 -0.638799830399 -0.705896525136 -0.161363226791 0.160505097823
1.893 -0.161464041615 0.16083706936 -0.639609120577 -0.705050128073 -0.639610360396 -0.705050024914 -0.16140667327 0.160916979537
1.894 -0.161506713765 0.161249367919 -0.640418400079 -0.704202697783 -0.640419640317 -0.704202591298 -0.161449330152 0.161329123782
1.895 -0.161548594778 0.161661927063 -0.64122642844 -0.703354336283 -0.641227668933 -0.70335422655 -0.16149119655 0.161741528452
1.896 -0.161589683772 0.162074744681 -0.642033204432 -0.702505045836 -0.642034445016 -0.702504932932 -0.161532271584 0.162154191437
1.897 -0.161629979873 0.162487818658 -0.642838726837 -0.701654828705 -0.642839967345 -0.701654712711 -0.161572554382 0.162567110626
1.898 -0.161669482214 0.162901146875 -0.643642994439 -0.700803687159 -0.643644234705 -0.700803568155 -0.161612044077 0.162980283902
1.899 -0.161708189935 0.163314727209 -0.644446006026 -0.699951623467 -0.644447245884 -0.699951501536 -0.161650739811 0.163393709145
1.9 -0.161746102181 0.163728557537 -0.645247760394 -0.699098639899 -0.645248999676 -0.699098515124 -0.161688640731 0.163807384234
1.901 -0.161783218106 0.164142635729 -0.646048256341 -0.698244738729 -0.64604949488 -0.698244611197 -0.161725745991 0.164221307043
1.902 -0.16181953687 0.164556959655 -0.646847492673 -0.697389922233 -0.646848730298 -0.697389792029 -0.161762054752 0.164635475442
1.903 -0.16185505764 0.164971527178 -0.647645468199 -0.696534192689 -0.647646704741 -0.696534059901 -0.161797566183 0.165049887299
1.904 -0.161889779589 0.165386336161 -0.648442181732 -0.695677552377 -0.648443417022 -0.695677417095 -0.161832279458 0.165464540478
1.905 -0.161923701899 0.165801384464 -0.649237632093 -0.694820003578 -0.649238865958 -0.694819865892 -0.16186619376 0.165879432842
1.906 -0.161956823756 0.16621666994 -0.650031818105 -0.693961548578 -0.650033050375 -0.69396140858 -0.161899308277 0.166294562248
1.907 -0.161989144356 0.166632190444 -0.650824738598 -0.693102189661 -0.6508259691 -0.693102047446 -0.161931622205 0.166709926552
1.908 -0.1620206629 0.167047943824 -0.651616392407 -0.692241929117 -0.651617620967 -0.692241784778 -0.161963134747 0.167125523605
1.909 -0.162051378597 0.167463927926 -0.65240677837 -0.691380769237 -0.652408004816 -0.691380622871 -0.161993845113 0.167541351257
1.91 -0.162081290662 0.167880140595 -0.653195895332 -0.690518712311 -0.653197119489 -0.690518564016 -0.162023752519 0.167957407353
1.911 -0.162110398318 0.16829657967 -0.653983742142 -0.689655760636 -0.653984963836 -0.68965561051 -0.162052856189 0.168373689737
1.912 -0.162138700793 0.168713242988 -0.654770317655 -0.688791916508 -0.654771536709 -0.688791764651 -0.162081155353 0.168790196249
1.913 -0.162166197326 0.169130128384 -0.65555562073 -0.687927182224 -0.655556836969 -0.68792702874 -0.162108649249 0.169206924725
1.914 -0.162192887159 0.16954723369 -0.656339650231 -0.687061560087 -0.656340863479 -0.687061405077 -0.162135337123 0.169623873
1.915 -0.162218769543 0.169964556734 -0.657122405029 -0.686195052397 -0.657123615108 -0.686194895967 -0.162161218225 0.170041038904
1.916 -0.162243843737 0.170382095341 -0.657903883998 -0.68532766146 -0.657905090729 -0.685327503716 -0.162186291815 0.170458420268
1.917 -0.162268109004 0.170799847335 -0.658684086016 -0.684459389583 -0.658685289222 -0.684459230632 -0.162210557158 0.170876014914
1.918 -0.162291564617 0.171217810535 -0.65946300997 -0.683590239073 -0.65946420947 -0.683590079024 -0.162234013528 0.171293820668
1.919 -0.162314209854 0.171635982758 -0.660240654748 -0.68272021224 -0.660241850364 -0.682720051204 -0.162256660204 0.171711835348
1.92 -0.162336044003 0.172054361819 -0.661017019246 -0.681849311398 -0.661018210797 -0.681849149487 -0.162278496474 0.172130056771
1.921 -0.162357066357 0.17247294553 -0.661792102363 -0.680977538861 -0.661793289668 -0.680977376187 -0.162299521633 0.172548482752
1.922 -0.162377276215 0.172891731699 -0.662565903004 -0.680104896943 -0.662567085881 -0.680104733622 -0.162319734982 0.172967111103
1.923 -0.162396672887 0.173310718132 -0.66333842008 -0.679231387964 -0.663339598347 -0.679231224111 -0.162339135829 0.173385939633
1.924 -0.162415255686 0.173729902634 -0.664109652504 -0.678357014242 -0.664110825979 -0.678356849975 -0.16235772349 0.173804966147
1.925 -0.162433023935 0.174149283005 -0.664879599198 -0.6774817781 -0.664880767698 -0.677481613539 -0.16237549729 0.17422418845
1.926 -0.162449976963 0.174568857043 -0.665648259087 -0.676605681861 -0.665649422427 -0.676605517126 -0.162392456556 0.174643604343
1.927 -0.162466114106 0.174988622544 -0.666415631101 -0.67572872785 -0.666416789097 -0.675728563062 -0.162408600629 0.175063211624
1.928 -0.162481434709 0.175408577301 -0.667181714175 -0.674850918394 -0.667182866643 -0.674850753678 -0.162423928851 0.17548300809
1.929 -0.162495938123 0.175828719106 -0.667946507249 -0.673972255822 -0.667947654004 -0.673972091303 -0.162438440575 0.175902991533
1.93 -0.162509623705 0.176249045745 -0.668710009271 -0.673092742465 -0.668711150126 -0.673092578268 -0.16245213516 0.176323159745
1.931 -0.162522490822 0.176669555005 -0.66947221919 -0.672212380655 -0.669473353958 -0.672212216909 -0.162465011972 0.176743510515
1.932 -0.162534538845 0.17709024467 -0.670233135961 -0.671331172725 -0.670234264456 -0.67133100956 -0.162477070386 0.177164041627
1.933 -0.162545767157 0.177511112519 -0.670992758547 -0.670449121013 -0.670993880582 -0.670448958558 -0.162488309783 0.177584750867
1.934 -0.162556175143 0.177932156331 -0.671751085913 -0.669566227855 -0.671752201299 -0.669566066244 -0.162498729549 0.178005636015
1.935 -0.162565762198 0.178353373882 -0.672508117031 -0.66868249559 -0.672509225579 -0.668682334957 -0.162508329083 0.17842669485
1.936 -0.162574527726 0.178774762947 -0.673263850876 -0.66779792656 -0.673264952398 -0.66779776704 -0.162517107785 0.178847925149
1.937 -0.162582471135 0.179196321296 -0.674018286431 -0.666912523107 -0.674019380736 -0.666912364837 -0.162525065067 0.179269324686
1.938 -0.162589591842 0.179618046699 -0.674771422681 -0.666026287576 -0.67477250958 -0.666026130693 -0.162532200346 0.179690891233
1.939 -0.162595889271 0.180039936922 -0.675523258619 -0.665139222312 -0.675524337922 -0.665139066958 -0.162538513047 0.180112622561
1.94 -0.162601362854 0.18046198973 -0.676273793241 -0.664251329663 -0.676274864756 -0.664251175978 -0.162544002602 0.180534516436
1.941 -0.16260601203 0.180884202887 -0.677023025549 -0.663362611978 -0.677024089086 -0.663362460106 -0.162548668452 0.180956570624
1.942 -0.162609836246 0.181306574151 -0.677770954551 -0.662473071607 -0.677772009917 -0.662472921693 -0.162552510044 0.181378782888
1.943 -0.162612834954 0.181729101281 -0.67851757926 -0.661582710904 -0.678518626262 -0.661582563093 -0.162555526831 0.181801150989
1.944 -0.162615007617 0.182151782034 -0.679262898691 -0.660691532222 -0.679263937137 -0.660691386662 -0.162557718276 0.182223672687
1.945 -0.162616353703 0.182574614164 -0.680006911869 -0.659799537917 -0.680007941566 -0.659799394756 -0.162559083848 0.182646345738
1.946 -0.162616872688 0.182997595421 -0.68074961782 -0.658906730345 -0.680750638574 -0.658906589735 -0.162559623025 0.183069167898
1.947 -0.162616564056 0.183420723557 -0.681491015578 -0.658013111865 -0.681492027195 -0.658012973958 -0.16255933529 0.183492136918
1.948 -0.162615427298 0.18384399632 -0.682231104182 -0.657118684838 -0.682232106466 -0.657118549787 -0.162558220134 0.183915250551
1.949 -0.162613461912 0.184267411455 -0.682969882673 -0.656223451624 -0.68297087543 -0.656223319586 -0.162556277058 0.184338506545
1.95 -0.162610667404 0.184690966706 -0.683707350101 -0.655327414588 -0.683708333135 -0.655327285718 -0.162553505568 0.184761902647
1.951 -0.162607043289 0.185114659816 -0.684443505519 -0.654430576093 -0.684444478635 -0.65443045055 -0.162549905178 0.185185436603
1.952 -0.162602589086 0.185538488525 -0.685178347987 -0.653532938505 -0.685179310988 -0.653532816449 -0.162545475409 0.185609106155
1.953 -0.162597304324 0.185962450571 -0.685911876568 -0.652634504193 -0.685912829257 -0.652634385785 -0.162540215791 0.186032909045
1.954 -0.16259118854 0.186386543692 -0.686644090331 -0.651735275524 -0.686645032512 -0.651735160928 -0.16253412586 0.186456843013
1.955 -0.162584241277 0.186810765622 -0.687374988351 -0.65083525487 -0.687375919826 -0.65083514425 -0.162527205161 0.186880905796
1.956 -0.162576462086 0.187235114093 -0.688104569707 -0.649934444601 -0.688105490278 -0.649934338125 -0.162519453245 0.187305095131
1.957 -0.162567850526 0.187659586839 -0.688832833484 -0.649032847092 -0.688833742953 -0.649032744926 -0.162510869671 0.187729408753
1.958 -0.162558406163 0.188084181587 -0.689559778773 -0.648130464716 -0.68956067694 -0.64813036703 -0.162501454007 0.188153844393
1.959 -0.162548128572 0.188508896067 -0.690285404667 -0.64722729985 -0.690286291335 -0.647227206814 -0.162491205826 0.188578399783
1.96 -0.162537017332 0.188933728004 -0.691009710268 -0.64632335487 -0.691010585237 -0.646323266657 -0.162480124711 0.189003072652
1.961 -0.162525072034 0.189358675124 -0.691732694682 -0.645418632155 -0.691733557751 -0.64541854894 -0.16246821025 0.189427860728
1.962 -0.162512292274 0.18978373515 -0.692454357018 -0.644513134086 -0.692455207988 -0.644513056044 -0.162455462041 0.189852761738
1.963 -0.162498677656 0.190208905803 -0.693174696393 -0.643606863042 -0.693175535064 -0.643606790351 -0.162441879689 0.190277773406
1.964 -0.162484227792 0.190634184804 -0.693893711928 -0.642699821407 -0.693894538099 -0.642699754245 -0.162427462806 0.190702893455
1.965 -0.162468942302 0.191059569871 -0.69461140275 -0.641792011565 -0.694612216219 -0.641791950112 -0.162412211011 0.191128119608
1.966 -0.162452820812 0.191485058722 -0.695327767989 -0.6408834359 -0.695328568556 -0.640883380339 -0.162396123933 0.191553449583
1.967 -0.162435862957 0.191910649072 -0.696042806784 -0.639974096798 -0.696043594247 -0.639974047313 -0.162379201206 0.191978881101
1.968 -0.162418068379 0.192336338636 -0.696756518276 -0.639063996648 -0.696757292432 -0.639063953424 -0.162361442472 0.192404411879
1.969 -0.162399436729 0.192762125126 -0.697468901611 -0.638153137837 -0.697469662259 -0.638153101061 -0.162342847383 0.192830039632
1.97 -0.162379967665 0.193188006255 -0.698179955944 -0.637241522755 -0.69818070288 -0.637241492616 -0.162323415597 0.193255762075
1.971 -0.16235966085 0.193613979733 -0.698889680431 -0.636329153795 -0.698890413453 -0.636329130482 -0.162303146778 0.193681576923
1.972 -0.162338515959 0.194040043268 -0.699598074236 -0.635416033347 -0.69959879314 -0.635416017053 -0.162282040601 0.194107481887
1.973 -0.162316532673 0.19446619457 -0.700305136526 -0.634502163806 -0.700305841109 -0.634502154724 -0.162260096745 0.194533474678
1.974 -0.162293710679 0.194892431344 -0.701010866475 -0.633587547566 -0.701011556533 -0.633587545891 -0.162237314901 0.194959553006
1.975 -0.162270049673 0.195318751297 -0.701715263262 -0.632672187022 -0.701715938591 -0.632672192951 -0.162213694764 0.19538571458
1.976 -0.162245549359 0.195745152131 -0.702418326071 -0.631756084572 -0.702418986466 -0.631756098302 -0.162189236038 0.195811957106
1.977 -0.16222020945 0.196171631552 -0.70312005409 -0.630839242613 -0.703120699347 -0.630839264346 -0.162163938434 0.196238278292
1.978 -0.162194029663 0.19659818726 -0.703820446514 -0.629921663545 -0.703821076429 -0.629921693481 -0.162137801673 0.196664675842
1.979 -0.162167009726 0.197024816957 -0.704519502543 -0.629003349767 -0.70452011691 -0.62900338811 -0.162110825482 0.197091147461
1.98 -0.162139149373 0.197451518343 -0.705217221382 -0.628084303681 -0.705217819995 -0.628084350635 -0.162083009595 0.197517690851
1.981 -0.162110448347 0.197878289117 -0.70591360224 -0.627164527689 -0.705914184895 -0.627164583461 -0.162054353754 0.197944303715
1.982 -0.162080906398 0.198305126976 -0.706608644333 -0.626244024194 -0.706609210823 -0.626244088992 -0.16202485771 0.198370983755
1.983 -0.162050523283 0.198732029619 -0.707302346881 -0.6253227956 -0.707302897001 -0.625322869634 -0.161994521221 0.19879772867
1.984 -0.162019298769 0.199158994742 -0.707994709111 -0.624400844313 -0.707995242654 -0.624400927794 -0.161963344053 0.19922453616
1.985 -0.161987232627 0.199586020039 -0.708685730253 -0.623478172739 -0.708686247013 -0.62347826588 -0.161931325978 0.199651403923
1.986 -0.161954324641 0.200013103205 -0.709375409544 -0.622554783285 -0.709375909314 -0.622554886301 -0.161898466779 0.200078329656
1.987 -0.161920574597 0.200440241934 -0.710063746225 -0.621630678359 -0.710064228799 -0.621630791467 -0.161864766243 0.200505311058
1.988 -0.161885982294 0.200867433919 -0.710750739543 -0.620705860371 -0.710751204714 -0.620705983788 -0.161830224169 0.200932345823
1.989 -0.161850547534 0.201294676852 -0.711436388751 -0.61978033173 -0.711436836311 -0.619780465676 -0.161794840359 0.201359431647
1.99 -0.161814270131 0.201721968425 -0.712120693105 -0.618854094847 -0.712121122847 -0.618854239544 -0.161758614627 0.201786566224
1.991 -0.161777149904 0.202149306328 -0.712803651868 -0.617927152135 -0.712804063585 -0.617927307806 -0.161721546792 0.202213747249
1.992 -0.161739186681 0.202576688251 -0.713485264308 -0.616999506007 -0.713485657792 -0.616999672875 -0.161683636682 0.202640972415
1.993 -0.161700380298 0.203004111884 -0.714165529699 -0.616071158875 -0.714165904741 -0.616071337168 -0.161644884132 0.203068239415
1.994 -0.161660730597 0.203431574915 -0.714844447318 -0.615142113154 -0.714844803711 -0.6151423031 -0.161605288985 0.203495545939
1.995 -0.161620237429 0.203859075034 -0.715522016448 -0.61421237126 -0.715522353985 -0.614212573089 -0.161564851094 0.203922889681
1.996 -0.161578900654 0.204286609928 -0.71619823638 -0.613281935609 -0.716198554851 -0.613282149551 -0.161523570315 0.20435026833
1.997 -0.161536720139 0.204714177283 -0.716873106408 -0.612350808618 -0.716873405605 -0.612351034907 -0.161481446517 0.204777679578
1.998 -0.161493695756 0.205141774788 -0.717546625829 -0.611418992705 -0.717546905544 -0.611419231576 -0.161438479572 0.205205121113
1.999 -0.16144982739 0.205569400128 -0.71821879395 -0.610486490288 -0.718219053974 -0.610486741977 -0.161394669365 0.205632590627
2 -0.161405114929 0.205997050989 -0.71888961008 -0.609553303787 -0.718889850205 -0.609553568532 -0.161350015783 0.206060085807
